! Touchstone file exported from Circuit Design 2026.1.0
!        File:           local/demo-project/Project1.aedt
!        Generated:      01:57:31 PM Apr 21, 2026
!        Design:         Circuit1
!        Project:        Project1
!        Setup:          LinearFrequency
!        Solution:       LinearFrequency
!
# GHz S MA R 50.000000
! Terminal data exported
! Port[1] = Port1
! Port[2] = Port2
0                              9.69612387829628E-05 -0               0.999903038761217 -0               0.999903038761217 -0               9.6961238783214E-05 -0               
! Gamma         0                0                0                0                
! Port Impedance         50               0                50               0                
0.02                           0.00376178540214475 88.0531494028648 0.99989044392563 -0.385698010249942 0.99989044392563 -0.385698010249942 0.00376178540214475 88.0531494028629 
! Gamma         0                0                0                0                
! Port Impedance         50               0                50               0                
0.04                           0.00751463001190262 88.3606496600005 0.999857886324796 -0.770999245501231 0.999857886324796 -0.770999245501231 0.00751463001190261 88.3606496600025 
! Gamma         0                0                0                0                
! Port Impedance         50               0                50               0                
0.06                           0.0112617590747443 88.2018223086589 0.999810362600558 -1.1559612003451 0.999810362600558 -1.1559612003451 0.0112617590747443 88.2018223086564 
! Gamma         0                0                0                0                
! Port Impedance         50               0                50               0                
0.08                           0.0150045868591793 87.9317247232758 0.999749268465673 -1.54068660515859 0.999749268465674 -1.54068660515859 0.0150045868591793 87.9317247232767 
! Gamma         0                0                0                0                
! Port Impedance         50               0                50               0                
0.1                            0.0187439624579616 87.6179711928189 0.999674885493431 -1.92523203568906 0.999674885493431 -1.92523203568906 0.0187439624579616 87.6179711928185 
! Gamma         0                0                0                0                
! Port Impedance         50               0                50               0                
0.12                           0.0224802759797932 87.2824317415767 0.999587234083689 -2.30962564237926 0.999587234083689 -2.30962564237926 0.0224802759797932 87.2824317415767 
! Gamma         0                0                0                0                
! Port Impedance         50               0                50               0                
0.14                           0.0262136672093424 86.9343554439218 0.999486278678921 -2.69388066033845 0.999486278678921 -2.69388066033845 0.0262136672093424 86.9343554439209 
! Gamma         0                0                0                0                
! Port Impedance         50               0                50               0                
0.16                           0.0299441366763454 86.5783578290721 0.999371979609105 -3.07800213531365 0.999371979609105 -3.07800213531365 0.0299441366763454 86.5783578290716 
! Gamma         0                0                0                0                
! Port Impedance         50               0                50               0                
0.18                           0.0336716028690243 86.2170174805867 0.99924430625435 -3.46199031477779 0.99924430625435 -3.46199031477779 0.0336716028690242 86.2170174805873 
! Gamma         0                0                0                0                
! Port Impedance         50               0                50               0                
0.2                            0.0373959332355383 85.8518983770914 0.999103239573987 -3.84584246636885 0.999103239573988 -3.84584246636885 0.0373959332355383 85.8518983770916 
! Gamma         0                0                0                0                
! Port Impedance         50               0                50               0                
0.22                           0.0411169619963299 85.4840104571591 0.998948771666005 -4.22955391604643 0.998948771666005 -4.22955391604643 0.0411169619963299 85.4840104571591 
! Gamma         0                0                0                0                
! Port Impedance         50               0                50               0                
0.24                           0.0448345009427515 85.1140389993388 0.998780904617544 -4.61311867452685 0.998780904617544 -4.61311867452685 0.0448345009427515 85.1140389993388 
! Gamma         0                0                0                0                
! Port Impedance         50               0                50               0                
0.26                           0.0485483462978713 84.7424681008856 0.998599649324605 -4.99652983369252 0.998599649324605 -4.99652983369252 0.0485483462978713 84.742468100886  
! Gamma         0                0                0                0                
! Port Impedance         50               0                50               0                
0.28                           0.0522582832563444 84.3696514070934 0.998405024465098 -5.37977982788382 0.998405024465098 -5.37977982788382 0.0522582832563444 84.3696514070936 
! Gamma         0                0                0                0                
! Port Impedance         50               0                50               0                
0.3                            0.0559640890970193 83.9958547352361 0.998197055652588 -5.76286061230754 0.998197055652588 -5.76286061230754 0.0559640890970193 83.9958547352366 
! Gamma         0                0                0                0                
! Port Impedance         50               0                50               0                
0.32                           0.0596655353848131 83.6212828705871 0.997975774751542 -6.14576378866187 0.997975774751542 -6.14576378866188 0.0596655353848131 83.621282870587  
! Gamma         0                0                0                0                
! Port Impedance         50               0                50               0                
0.34                           0.0633623895724031 83.2460970253725 0.997741219324866 -6.52848069603358 0.997741219324865 -6.52848069603358 0.0633623895724031 83.246097025372  
! Gamma         0                0                0                0                
! Port Impedance         50               0                50               0                
0.36                           0.0670544161950248 82.8704265681334 0.997493432186165 -6.91100247828624 0.997493432186165 -6.91100247828624 0.0670544161950248 82.8704265681331 
! Gamma         0                0                0                0                
! Port Impedance         50               0                50               0                
0.38                           0.0707413777824101 82.4943771157998 0.997232461033803 -7.29332013512951 0.997232461033804 -7.29332013512951 0.0707413777824101 82.4943771157999 
! Gamma         0                0                0                0                
! Port Impedance         50               0                50               0                
0.4                            0.0744230355696419 82.1180362475229 0.996958358148567 -7.67542456160437 0.996958358148567 -7.67542456160436 0.074423035569642 82.1180362475227 
! Gamma         0                0                0                0                
! Port Impedance         50               0                50               0                
0.42                           0.0780991500621522 81.7414776226829 0.996671180140878 -8.05730657917987 0.996671180140879 -8.05730657917987 0.0780991500621522 81.741477622683  
! Gamma         0                0                0                0                
! Port Impedance         50               0                50               0                
0.44                           0.08176948149297 81.3647640032303 0.996370987736689 -8.43895696066487 0.996370987736689 -8.43895696066487 0.0817694814929699 81.3647640032306 
! Gamma         0                0                0                0                
! Port Impedance         50               0                50               0                
0.46                           0.0854337901990278 80.9879495082262 0.996057845593712 -8.82036645048409 0.996057845593713 -8.82036645048409 0.0854337901990278 80.9879495082264 
! Gamma         0                0                0                0                
! Port Impedance         50               0                50               0                
0.48                           0.0890918369357122 80.6110813203896 0.995731822141569 -9.2015257814273 0.995731822141569 -9.2015257814273 0.0890918369357122 80.6110813203898 
! Gamma         0                0                0                0                
! Port Impedance         50               0                50               0                
0.5                            0.0927433831436151 80.2342009950122 0.995392989440856 -9.58242568867778 0.995392989440856 -9.58242568867778 0.0927433831436151 80.2342009950124 
! Gamma         0                0                0                0                
! Port Impedance         50               0                50               0                
0.52                           0.0963881911777755 79.8573454759861 0.995041423057269 -9.96305692171473 0.995041423057269 -9.96305692171473 0.0963881911777756 79.8573454759859 
! Gamma         0                0                0                0                
! Port Impedance         50               0                50               0                
0.54                           0.100026024507105 79.4805478931387 0.99467720194774 -10.343410254534 0.99467720194774 -10.343410254534 0.100026024507105 79.4805478931388 
! Gamma         0                0                0                0                
! Port Impedance         50               0                50               0                
0.56                           0.103656647889817 79.1038381942267 0.994300408356207 -10.7234764945237 0.994300408356207 -10.7234764945237 0.103656647889817 79.1038381942267 
! Gamma         0                0                0                0                
! Port Impedance         50               0                50               0                
0.58                           0.107279827529296 78.7272436504783 0.99391112771711 -11.1032464902513 0.99391112771711 -11.1032464902513 0.107279827529296 78.7272436504779 
! Gamma         0                0                0                0                
! Port Impedance         50               0                50               0                
0.6                            0.110895331213867 78.3507892644134 0.993509448565136 -11.482711138362 0.993509448565136 -11.482711138362 0.110895331213867 78.3507892644135 
! Gamma         0                0                0                0                
! Port Impedance         50               0                50               0                
0.62                           0.114502928443113 77.9744981013975 0.993095462449987 -11.8618613897422 0.993095462449987 -11.8618613897422 0.114502928443113 77.9744981013975 
! Gamma         0                0                0                0                
! Port Impedance         50               0                50               0                
0.64                           0.118102390542871 77.5983915611381 0.992669263855223 -12.2406882550713 0.992669263855223 -12.2406882550713 0.118102390542871 77.5983915611381 
! Gamma         0                0                0                0                
! Port Impedance         50               0                50               0                
0.66                           0.121693490770561 77.2224896014904 0.99223095012039 -12.619182809858 0.99223095012039 -12.619182809858 0.121693490770561 77.2224896014905 
! Gamma         0                0                0                0                
! Port Impedance         50               0                50               0                
0.68                           0.12527600441219 76.846810924099  0.991780621365816 -12.9973361990386 0.991780621365816 -12.9973361990386 0.12527600441219 76.846810924099  
! Gamma         0                0                0                0                
! Port Impedance         50               0                50               0                
0.7                            0.128849708872097 76.4713731292706 0.991318380419561 -13.3751396411993 0.99131838041956 -13.3751396411993 0.128849708872097 76.4713731292706 
! Gamma         0                0                0                0                
! Port Impedance         50               0                50               0                
0.72                           0.13241438375631 76.096192845878  0.990844332746112 -13.7525844324743 0.990844332746112 -13.7525844324743 0.13241438375631 76.096192845878  
! Gamma         0                0                0                0                
! Port Impedance         50               0                50               0                
0.74                           0.13596981095022 75.72128584087   0.990358586376486 -14.1296619501586 0.990358586376486 -14.1296619501586 0.13596981095022 75.72128584087   
! Gamma         0                0                0                0                
! Port Impedance         50               0                50               0                
0.76                           0.139515774691153 75.3466671120223 0.989861251839467 -14.5063636560721 0.989861251839467 -14.5063636560721 0.139515774691153 75.3466671120223 
! Gamma         0                0                0                0                
! Port Impedance         50               0                50               0                
0.78                           0.143052061636317 74.9723509668456 0.989352442093766 -14.8826810996997 0.989352442093766 -14.8826810996997 0.143052061636317 74.9723509668456 
! Gamma         0                0                0                0                
! Port Impedance         50               0                50               0                
0.8                            0.146578460926518 74.5983510899922 0.988832272460915 -15.2586059211341 0.988832272460915 -15.2586059211341 0.146578460926518 74.5983510899922 
! Gamma         0                0                0                0                
! Port Impedance         50               0                50               0                
0.82                           0.150094764245976 74.224680601066  0.988300860558765 -15.6341298538367 0.988300860558765 -15.6341298538367 0.150094764245976 74.2246806010659 
! Gamma         0                0                0                0                
! Port Impedance         50               0                50               0                
0.84                           0.153600765878519 73.8513521043823 0.987758326235461 -16.009244727236 0.987758326235461 -16.009244727236 0.153600765878519 73.8513521043824 
! Gamma         0                0                0                0                
! Port Impedance         50               0                50               0                
0.86                           0.15709626276039 73.4783777319517 0.987204791503819 -16.3839424691753 0.987204791503819 -16.3839424691753 0.15709626276039 73.4783777319518 
! Gamma         0                0                0                0                
! Port Impedance         50               0                50               0                
0.88                           0.160581054529853 73.1057691807286 0.986640380476024 -16.7582151082214 0.986640380476024 -16.7582151082214 0.160581054529854 73.1057691807285 
! Gamma         0                0                0                0                
! Port Impedance         50               0                50               0                
0.9                            0.164054943573789 72.7335377449956 0.9860652192986  -17.1320547758451 0.9860652192986  -17.1320547758451 0.164054943573789 72.7335377449955 
! Gamma         0                0                0                0                
! Port Impedance         50               0                50               0                
0.92                           0.167517735071396 72.3616943446005 0.985479436087616 -17.5054537084798 0.985479436087616 -17.5054537084798 0.167517735071396 72.3616943446006 
! Gamma         0                0                0                0                
! Port Impedance         50               0                50               0                
0.94                           0.170969237035156 71.9902495496496 0.984883160864094 -17.8784042494681 0.984883160864095 -17.8784042494681 0.170969237035156 71.9902495496498 
! Gamma         0                0                0                0                
! Port Impedance         50               0                50               0                
0.96                           0.17440926034914 71.6192136021585 0.984276525489617 -18.2508988508994 0.984276525489617 -18.2508988508994 0.17440926034914 71.6192136021585 
! Gamma         0                0                0                0                
! Port Impedance         50               0                50               0                
0.98                           0.177837618804777 71.2485964350899 0.9836596636021  -18.6229300753475 0.9836596636021  -18.6229300753475 0.177837618804777 71.2485964350899 
! Gamma         0                0                0                0                
! Port Impedance         50               0                50               0                
1                              0.181254129134154 70.8784076891324 0.983032710551758 -18.9944905975091 0.983032710551758 -18.9944905975091 0.181254129134154 70.8784076891325 
! Gamma         0                0                0                0                
! Port Impedance         50               0                50               0                
1.02                           0.184658611040925 70.5086567275301 0.982395803337244 -19.3655732057504 0.982395803337244 -19.3655732057504 0.184658611040925 70.5086567275301 
! Gamma         0                0                0                0                
! Port Impedance         50               0                50               0                
1.04                           0.18805088722891 70.1393526492165 0.981749080541983 -19.7361708035633 0.981749080541984 -19.7361708035632 0.18805088722891 70.1393526492166 
! Gamma         0                0                0                0                
! Port Impedance         50               0                50               0                
1.06                           0.191430783428426 69.7705043004804 0.981092682270709 -20.1062764109359 0.981092682270708 -20.1062764109359 0.191430783428426 69.7705043004803 
! Gamma         0                0                0                0                
! Port Impedance         50               0                50               0                
1.08                           0.194798128420418 69.4021202853477 0.980426750086222 -20.4758831656395 0.980426750086223 -20.4758831656395 0.194798128420418 69.4021202853477 
! Gamma         0                0                0                0                
! Port Impedance         50               0                50               0                
1.1                            0.198152754058448 69.0342089748478 0.97975142694639 -20.8449843244339 0.97975142694639 -20.8449843244339 0.198152754058448 69.0342089748479 
! Gamma         0                0                0                0                
! Port Impedance         50               0                50               0                
1.12                           0.201494495288574 68.6667785152993 0.9790668571414  -21.2135732641953 0.9790668571414  -21.2135732641953 0.201494495288574 68.6667785152991 
! Gamma         0                0                0                0                
! Port Impedance         50               0                50               0                
1.14                           0.20482319016718 68.2998368357416 0.978373186231307 -21.581643482967 0.978373186231307 -21.581643482967 0.20482319016718 68.2998368357417 
! Gamma         0                0                0                0                
! Port Impedance         50               0                50               0                
1.16                           0.208138679876795 67.9333916546156 0.977670560983884 -21.9491886009361 0.977670560983883 -21.9491886009361 0.208138679876795 67.9333916546156 
! Gamma         0                0                0                0                
! Port Impedance         50               0                50               0                
1.18                           0.211440808739942 67.5674504857829 0.976959129312806 -22.3162023613375 0.976959129312806 -22.3162023613375 0.211440808739942 67.567450485783  
! Gamma         0                0                0                0                
! Port Impedance         50               0                50               0                
1.2                            0.214729424231062 67.2020206439669 0.976239040216203 -22.682678631287 0.976239040216203 -22.682678631287 0.214729424231062 67.2020206439669 
! Gamma         0                0                0                0                
! Port Impedance         50               0                50               0                
1.22                           0.218004376986544 66.8371092496828 0.975510443715599 -23.048611402545 0.975510443715599 -23.048611402545 0.218004376986544 66.8371092496828 
! Gamma         0                0                0                0                
! Port Impedance         50               0                50               0                
1.24                           0.221265520812911 66.4727232337176 0.97477349079526 -23.4139947922129 0.97477349079526 -23.4139947922129 0.221265520812911 66.4727232337177 
! Gamma         0                0                0                0                
! Port Impedance         50               0                50               0                
1.26                           0.224512712693187 66.1088693412138 0.974028333342006 -23.7788230433626 0.974028333342006 -23.7788230433626 0.224512712693187 66.1088693412138 
! Gamma         0                0                0                0                
! Port Impedance         50               0                50               0                
1.28                           0.227745812791492 65.7455541354031 0.973275124085475 -24.1430905256015 0.973275124085475 -24.1430905256015 0.227745812791492 65.7455541354032 
! Gamma         0                0                0                0                
! Port Impedance         50               0                50               0                
1.3                            0.230964684455899 65.3827840010318 0.972514016538907 -24.5067917355738 0.972514016538907 -24.5067917355738 0.230964684455899 65.3827840010318 
! Gamma         0                0                0                0                
! Port Impedance         50               0                50               0                
1.32                           0.234169194219584 65.0205651475128 0.971745164940442 -24.8699212973996 0.971745164940443 -24.8699212973996 0.234169194219584 65.0205651475128 
! Gamma         0                0                0                0                
! Port Impedance         50               0                50               0                
1.34                           0.237359211800318 64.658903611838  0.970968724194987 -25.2324739630528 0.970968724194987 -25.2324739630529 0.237359211800318 64.6589036118379 
! Gamma         0                0                0                0                
! Port Impedance         50               0                50               0                
1.36                           0.240534610098322 64.2978052612775 0.970184849816656 -25.5944446126799 0.970184849816657 -25.5944446126799 0.240534610098322 64.2978052612775 
! Gamma         0                0                0                0                
! Port Impedance         50               0                50               0                
1.38                           0.243695265192533 63.9372757958922 0.96939369787183 -25.9558282548591 0.969393697871831 -25.9558282548591 0.243695265192533 63.9372757958922 
! Gamma         0                0                0                0                
! Port Impedance         50               0                50               0                
1.4                            0.246841056335313 63.5773207508804 0.968595424922843 -26.3166200268034 0.968595424922843 -26.3166200268034 0.246841056335313 63.5773207508804 
! Gamma         0                0                0                0                
! Port Impedance         50               0                50               0                
1.42                           0.249971865945636 63.2179454987792 0.967790187972334 -26.6768151945067 0.967790187972334 -26.6768151945067 0.249971865945636 63.2179454987793 
! Gamma         0                0                0                0                
! Port Impedance         50               0                50               0                
1.44                           0.253087579600798 62.8591552515373 0.966978144408285 -27.0364091528354 0.966978144408285 -27.0364091528354 0.253087579600797 62.8591552515372 
! Gamma         0                0                0                0                
! Port Impedance         50               0                50               0                
1.46                           0.256188086026665 62.5009550624753 0.966159451949762 -27.395397425566 0.966159451949762 -27.395397425566 0.256188086026665 62.5009550624753 
! Gamma         0                0                0                0                
! Port Impedance         50               0                50               0                
1.48                           0.259273277086532 62.1433498281473 0.965334268593393 -27.7537756653702 0.965334268593392 -27.7537756653702 0.259273277086532 62.1433498281472 
! Gamma         0                0                0                0                
! Port Impedance         50               0                50               0                
1.5                            0.26234304776859 61.786344290115  0.964502752560595 -28.1115396537488 0.964502752560595 -28.1115396537488 0.26234304776859 61.786344290115  
! Gamma         0                0                0                0                
! Port Impedance         50               0                50               0                
1.52                           0.26539729617207 61.4299430366462 0.963665062245577 -28.4686853009149 0.963665062245577 -28.4686853009149 0.26539729617207 61.4299430366462 
! Gamma         0                0                0                0                
! Port Impedance         50               0                50               0                
1.54                           0.268435923492078 61.0741505043475 0.962821356164133 -28.8252086456283 0.962821356164133 -28.8252086456283 0.268435923492078 61.0741505043475 
! Gamma         0                0                0                0                
! Port Impedance         50               0                50               0                
1.56                           0.271458834003178 60.7189709797392 0.961971792903249 -29.1811058549824 0.961971792903249 -29.1811058549824 0.271458834003178 60.7189709797392 
! Gamma         0                0                0                0                
! Port Impedance         50               0                50               0                
1.58                           0.274465935041741 60.3644086007797 0.961116531071544 -29.5363732241431 0.961116531071544 -29.5363732241431 0.274465935041741 60.3644086007796 
! Gamma         0                0                0                0                
! Port Impedance         50               0                50               0                
1.6                            0.277457136987116 60.0104673583482 0.960255729250551 -29.8910071760435 0.960255729250551 -29.8910071760435 0.277457136987116 60.0104673583481 
! Gamma         0                0                0                0                
! Port Impedance         50               0                50               0                
1.62                           0.280432353241646 59.657151097689  0.959389545946864 -30.2450042610332 0.959389545946864 -30.2450042610332 0.280432353241646 59.657151097689  
! Gamma         0                0                0                0                
! Port Impedance         50               0                50               0                
1.64                           0.283391500209569 59.3044635198258 0.958518139545165 -30.5983611564849 0.958518139545165 -30.5983611564849 0.283391500209569 59.3044635198258 
! Gamma         0                0                0                0                
! Port Impedance         50               0                50               0                
1.66                           0.286334497274856 58.9524081829476 0.957641668262138 -30.9510746663583 0.957641668262139 -30.9510746663583 0.286334497274856 58.9524081829476 
! Gamma         0                0                0                0                
! Port Impedance         50               0                50               0                
1.68                           0.289261266777995 58.6009885037738 0.95676029010129 -31.3031417207237 0.95676029010129 -31.3031417207237 0.289261266777996 58.6009885037739 
! Gamma         0                0                0                0                
! Port Impedance         50               0                50               0                
1.7                            0.292171733991792 58.2502077588992 0.955874162808687 -31.6545593752451 0.955874162808687 -31.6545593752451 0.292171733991792 58.2502077588992 
! Gamma         0                0                0                0                
! Port Impedance         50               0                50               0                
1.72                           0.295065827096192 57.9000690861247 0.954983443829612 -32.0053248106255 0.954983443829613 -32.0053248106255 0.295065827096192 57.9000690861247 
! Gamma         0                0                0                0                
! Port Impedance         50               0                50               0                
1.74                           0.297943477152188 57.5505754857749 0.95408829026617 -32.3554353320137 0.95408829026617 -32.3554353320137 0.297943477152187 57.5505754857749 
! Gamma         0                0                0                0                
! Port Impedance         50               0                50               0                
1.76                           0.300804618074831 57.2017298220067 0.953188858835825 -32.7048883683754 0.953188858835825 -32.7048883683754 0.300804618074831 57.2017298220067 
! Gamma         0                0                0                0                
! Port Impedance         50               0                50               0                
1.78                           0.303649186605397 56.8535348241093 0.952285305830896 -33.0536814718293 0.952285305830896 -33.0536814718293 0.303649186605397 56.8535348241093 
! Gamma         0                0                0                0                
! Port Impedance         50               0                50               0                
1.8                            0.306477122282725 56.5059930878    0.951377787079011 -33.4018123169486 0.951377787079012 -33.4018123169486 0.306477122282724 56.5059930878    
! Gamma         0                0                0                0                
! Port Impedance         50               0                50               0                
1.82                           0.309288367413785 56.1591070765147 0.950466457904526 -33.7492787000295 0.950466457904526 -33.7492787000296 0.309288367413785 56.1591070765148 
! Gamma         0                0                0                0                
! Port Impedance         50               0                50               0                
1.84                           0.312082867043504 55.8128791226978 0.949551473090909 -34.0960785383291 0.949551473090909 -34.0960785383291 0.312082867043504 55.8128791226978 
! Gamma         0                0                0                0                
! Port Impedance         50               0                50               0                
1.86                           0.314860568923869 55.4673114290894 0.948632986844101 -34.4422098692709 0.948632986844101 -34.4422098692709 0.314860568923869 55.4673114290894 
! Gamma         0                0                0                0                
! Port Impedance         50               0                50               0                
1.88                           0.317621423482374 55.1224060700141 0.947711152756853 -34.7876708496223 0.947711152756853 -34.7876708496223 0.317621423482374 55.122406070014  
! Gamma         0                0                0                0                
! Port Impedance         50               0                50               0                
1.9                            0.320365383789818 54.7781649926696 0.946786123774035 -35.132459754643 0.946786123774035 -35.132459754643 0.320365383789818 54.7781649926696 
! Gamma         0                0                0                0                
! Port Impedance         50               0                50               0                
1.92                           0.3230924055275  54.4345900184182 0.945858052158929 -35.4765749772062 0.945858052158929 -35.4765749772062 0.3230924055275  54.4345900184182 
! Gamma         0                0                0                0                
! Port Impedance         50               0                50               0                
1.94                           0.32580244695385 54.0916828440798 0.944927089460501 -35.8200150268935 0.944927089460501 -35.8200150268935 0.32580244695385 54.0916828440798 
! Gamma         0                0                0                0                
! Port Impedance         50               0                50               0                
1.96                           0.32849546887052 53.7494450432284 0.943993386481643 -36.1627785290651 0.943993386481643 -36.1627785290651 0.328495468870519 53.7494450432284 
! Gamma         0                0                0                0                
! Port Impedance         50               0                50               0                
1.98                           0.331171434587967 53.4078780674916 0.943057093248396 -36.5048642239058 0.943057093248397 -36.5048642239058 0.331171434587967 53.4078780674916 
! Gamma         0                0                0                0                
! Port Impedance         50               0                50               0                
2                              0.333830309890578 53.0669832478541 0.942118358980157 -36.8462709654476 0.942118358980157 -36.8462709654476 0.333830309890578 53.0669832478541 
! Gamma         0                0                0                0                
! Port Impedance         50               0                50               0                
2.02                           0.336472063001348 52.7267617959648 0.941177332060835 -37.1869977205715 0.941177332060835 -37.1869977205715 0.336472063001348 52.7267617959648 
! Gamma         0                0                0                0                
! Port Impedance         50               0                50               0                
2.04                           0.339096664546152 52.3872148054479 0.940234160010989 -37.5270435679871 0.94023416001099 -37.5270435679871 0.339096664546152 52.3872148054479 
! Gamma         0                0                0                0                
! Port Impedance         50               0                50               0                
2.06                           0.341704087517647 52.0483432532176 0.939288989460933 -37.8664076971937 0.939288989460933 -37.8664076971938 0.341704087517647 52.0483432532176 
! Gamma         0                0                0                0                
! Port Impedance         50               0                50               0                
2.08                           0.344294307238827 51.7101480007978 0.938341966124775 -38.205089407422 0.938341966124775 -38.205089407422 0.344294307238827 51.7101480007978 
! Gamma         0                0                0                0                
! Port Impedance         50               0                50               0                
2.1                            0.346867301326264 51.3726297956442 0.937393234775435 -38.5430881065578 0.937393234775435 -38.5430881065578 0.346867301326264 51.3726297956442 
! Gamma         0                0                0                0                
! Port Impedance         50               0                50               0                
2.12                           0.349423049653062 51.0357892724717 0.936442939220586 -38.8804033100496 0.936442939220586 -38.8804033100496 0.349423049653062 51.0357892724717 
! Gamma         0                0                0                0                
! Port Impedance         50               0                50               0                
2.14                           0.351961534311561 50.6996269545841 0.935491222279541 -39.2170346398002 0.935491222279541 -39.2170346398002 0.351961534311561 50.6996269545841 
! Gamma         0                0                0                0                
! Port Impedance         50               0                50               0                
2.16                           0.354482739575811 50.364143255208  0.93453822576107 -39.552981823043 0.93453822576107 -39.552981823043 0.354482739575811 50.364143255208  
! Gamma         0                0                0                0                
! Port Impedance         50               0                50               0                
2.18                           0.356986651863841 50.0293384788291 0.933584090442133 -39.8882446912056 0.933584090442133 -39.8882446912056 0.356986651863841 50.029338478829  
! Gamma         0                0                0                0                
! Port Impedance         50               0                50               0                
2.2                            0.359473259699766 49.6952128225319 0.932628956047527 -40.222823178759 0.932628956047527 -40.222823178759 0.359473259699766 49.6952128225319 
! Gamma         0                0                0                0                
! Port Impedance         50               0                50               0                
2.22                           0.361942553675737 49.3617663773413 0.931672961230434 -40.5567173220563 0.931672961230435 -40.5567173220563 0.361942553675737 49.3617663773414 
! Gamma         0                0                0                0                
! Port Impedance         50               0                50               0                
2.24                           0.364394526413783 49.028999129567  0.930716243553867 -40.8899272581594 0.930716243553867 -40.8899272581594 0.364394526413783 49.028999129567  
! Gamma         0                0                0                0                
! Port Impedance         50               0                50               0                
2.26                           0.36682917252754 48.6969109621487 0.929758939472986 -41.2224532236556 0.929758939472986 -41.2224532236556 0.36682917252754 48.6969109621487 
! Gamma         0                0                0                0                
! Port Impedance         50               0                50               0                
2.28                           0.369246488583934 48.3655016560033 0.928801184318294 -41.5542955534654 0.928801184318294 -41.5542955534654 0.369246488583934 48.3655016560033 
! Gamma         0                0                0                0                
! Port Impedance         50               0                50               0                
2.3                            0.371646473064791 48.0347708913732 0.927843112279691 -41.8854546796415 0.927843112279692 -41.8854546796415 0.371646473064791 48.0347708913733 
! Gamma         0                0                0                0                
! Port Impedance         50               0                50               0                
2.32                           0.374029126328446 47.7047182491749 0.926884856391375 -42.21593113016  0.926884856391375 -42.21593113016  0.374029126328446 47.7047182491749 
! Gamma         0                0                0                0                
! Port Impedance         50               0                50               0                
2.34                           0.376394450571335 47.3753432123471 0.925926548517575 -42.5457255277055 0.925926548517575 -42.5457255277054 0.376394450571335 47.3753432123471 
! Gamma         0                0                0                0                
! Port Impedance         50               0                50               0                
2.36                           0.378742449789618 47.0466451671997 0.92496831933911 -42.8748385884492 0.92496831933911 -42.8748385884492 0.378742449789618 47.0466451671997 
! Gamma         0                0                0                0                
! Port Impedance         50               0                50               0                
2.38                           0.381073129740839 46.7186234047611 0.92401029834076 -43.2032711208228 0.92401029834076 -43.2032711208228 0.381073129740839 46.7186234047611 
! Gamma         0                0                0                0                
! Port Impedance         50               0                50               0                
2.4                            0.383386497905651 46.3912771221245 0.923052613799436 -43.5310240242878 0.923052613799436 -43.5310240242878 0.383386497905651 46.3912771221245 
! Gamma         0                0                0                0                
! Port Impedance         50               0                50               0                
2.42                           0.385682563449623 46.0646054237932 0.922095392773123 -43.8580982881001 0.922095392773123 -43.8580982881001 0.385682563449623 46.0646054237931 
! Gamma         0                0                0                0                
! Port Impedance         50               0                50               0                
2.44                           0.387961337185147 45.7386073230224 0.921138761090606 -44.1844949900732 0.921138761090606 -44.1844949900732 0.387961337185147 45.7386073230224 
! Gamma         0                0                0                0                
! Port Impedance         50               0                50               0                
2.46                           0.390222831533472 45.4132817431603 0.920182843341947 -44.5102152953382 0.920182843341947 -44.5102152953382 0.390222831533472 45.4132817431603 
! Gamma         0                0                0                0                
! Port Impedance         50               0                50               0                
2.48                           0.392467060486867 45.0886275189848 0.919227762869706 -44.8352604551024 0.919227762869706 -44.8352604551024 0.392467060486867 45.0886275189848 
! Gamma         0                0                0                0                
! Port Impedance         50               0                50               0                
2.5                            0.394694039570947 44.764643398037  0.918273641760887 -45.1596318054071 0.918273641760888 -45.1596318054071 0.394694039570947 44.764643398037  
! Gamma         0                0                0                0                
! Port Impedance         50               0                50               0                
2.52                           0.396903785807167 44.4413280419519 0.917320600839604 -45.4833307658856 0.917320600839604 -45.4833307658856 0.396903785807167 44.4413280419518 
! Gamma         0                0                0                0                
! Port Impedance         50               0                50               0                
2.54                           0.39909631767551 44.118680027783  0.916368759660438 -45.8063588385209 0.916368759660438 -45.8063588385209 0.39909631767551 44.118680027783  
! Gamma         0                0                0                0                
! Port Impedance         50               0                50               0                
2.56                           0.40127165507737 43.7966978493243 0.91541823650249 -46.1287176064051 0.91541823650249 -46.1287176064051 0.40127165507737 43.7966978493243 
! Gamma         0                0                0                0                
! Port Impedance         50               0                50               0                
2.58                           0.403429819298658 43.4753799184254 0.914469148364095 -46.4504087325002 0.914469148364095 -46.4504087325002 0.403429819298658 43.4753799184254 
! Gamma         0                0                0                0                
! Port Impedance         50               0                50               0                
2.6                            0.405570832973146 43.1547245663021 0.913521610958195 -46.7714339584008 0.913521610958195 -46.7714339584008 0.405570832973146 43.1547245663021 
! Gamma         0                0                0                0                
! Port Impedance         50               0                50               0                
2.62                           0.407694720046043 42.8347300448406 0.91257573870835 -47.0917951031007 0.912575738708349 -47.0917951031007 0.407694720046043 42.8347300448406 
! Gamma         0                0                0                0                
! Port Impedance         50               0                50               0                
2.64                           0.409801505737845 42.5153945278956 0.911631644745379 -47.4114940617615 0.911631644745378 -47.4114940617615 0.409801505737846 42.5153945278955 
! Gamma         0                0                0                0                
! Port Impedance         50               0                50               0                
2.66                           0.411891216508445 42.1967161125816 0.910689440904608 -47.7305328044863 0.910689440904608 -47.7305328044863 0.411891216508445 42.1967161125816 
! Gamma         0                0                0                0                
! Port Impedance         50               0                50               0                
2.68                           0.413963880021531 41.8786928205575 0.909749237723716 -48.0489133750966 0.909749237723716 -48.0489133750966 0.413963880021531 41.8786928205575 
! Gamma         0                0                0                0                
! Port Impedance         50               0                50               0                
2.7                            0.416019525109275 41.5613225993028 0.908811144441154 -48.3666378899156 0.908811144441154 -48.3666378899156 0.416019525109275 41.5613225993028 
! Gamma         0                0                0                0                
! Port Impedance         50               0                50               0                
2.72                           0.418058181737328 41.244603323387  0.907875268995142 -48.6837085365552 0.907875268995142 -48.6837085365552 0.418058181737329 41.2446033233869 
! Gamma         0                0                0                0                
! Port Impedance         50               0                50               0                
2.74                           0.420079880970134 40.9285327957302 0.906941718023206 -49.0001275727103 0.906941718023206 -49.0001275727103 0.420079880970134 40.9285327957302 
! Gamma         0                0                0                0                
! Port Impedance         50               0                50               0                
2.76                           0.422084654936552 40.613108748856  0.906010596862255 -49.3158973249586 0.906010596862255 -49.3158973249586 0.422084654936552 40.613108748856  
! Gamma         0                0                0                0                
! Port Impedance         50               0                50               0                
2.78                           0.424072536795831 40.2983288461345 0.905082009549177 -49.6310201875671 0.905082009549177 -49.6310201875671 0.424072536795831 40.2983288461345 
! Gamma         0                0                0                0                
! Port Impedance         50               0                50               0                
2.8                            0.426043560703912 39.9841906830171 0.904156058821943 -49.9454986213062 0.904156058821943 -49.9454986213062 0.426043560703912 39.9841906830171 
! Gamma         0                0                0                0                
! Port Impedance         50               0                50               0                
2.82                           0.427997761780083 39.6706917882615 0.903232846121202 -50.2593351522705 0.903232846121202 -50.2593351522705 0.427997761780083 39.6706917882615 
! Gamma         0                0                0                0                
! Port Impedance         50               0                50               0                
2.84                           0.429935176073989 39.3578296251472 0.902312471592347 -50.5725323707085 0.902312471592347 -50.5725323707085 0.429935176073989 39.3578296251472 
! Gamma         0                0                0                0                
! Port Impedance         50               0                50               0                
2.86                           0.431855840533007 39.0456015926808 0.901395034088053 -50.8850929298599 0.901395034088053 -50.8850929298599 0.431855840533007 39.0456015926808 
! Gamma         0                0                0                0                
! Port Impedance         50               0                50               0                
2.88                           0.433759792969989 38.7340050267912 0.900480631171249 -51.1970195448014 0.900480631171249 -51.1970195448014 0.433759792969988 38.7340050267912 
! Gamma         0                0                0                0                
! Port Impedance         50               0                50               0                
2.9                            0.435647072031376 38.4230372015144 0.899569359118539 -51.5083149913017 0.899569359118538 -51.5083149913017 0.435647072031376 38.4230372015144 
! Gamma         0                0                0                0                
! Port Impedance         50               0                50               0                
2.92                           0.437517717165703 38.1126953301674 0.898661312924026 -51.8189821046857 0.898661312924026 -51.8189821046857 0.437517717165703 38.1126953301674 
! Gamma         0                0                0                0                
! Port Impedance         50               0                50               0                
2.94                           0.439371768592476 37.8029765665111 0.897756586303552 -52.129023778708 0.897756586303552 -52.129023778708 0.439371768592476 37.8029765665111 
! Gamma         0                0                0                0                
! Port Impedance         50               0                50               0                
2.96                           0.441209267271449 37.4938780059027 0.896855271699327 -52.4384429644368 0.896855271699327 -52.4384429644368 0.441209267271449 37.4938780059027 
! Gamma         0                0                0                0                
! Port Impedance         50               0                50               0                
2.98                           0.443030254872291 37.1853966864353 0.895957460284928 -52.7472426691469 0.895957460284928 -52.7472426691469 0.443030254872291 37.1853966864353 
! Gamma         0                0                0                0                
! Port Impedance         50               0                50               0                
3                              0.444834773744647 36.8775295900677 0.895063241970669 -53.0554259552236 0.895063241970669 -53.0554259552237 0.444834773744647 36.8775295900677 
! Gamma         0                0                0                0                
! Port Impedance         50               0                50               0                
3.02                           0.446622866888611 36.5702736437407 0.89417270540932 -53.3629959390778 0.89417270540932 -53.3629959390778 0.446622866888611 36.5702736437407 
! Gamma         0                0                0                0                
! Port Impedance         50               0                50               0                
3.04                           0.448394577925589 36.263625720483  0.89328593800216 -53.6699557900702 0.89328593800216 -53.6699557900702 0.448394577925589 36.2636257204831 
! Gamma         0                0                0                0                
! Port Impedance         50               0                50               0                
3.06                           0.450149951069577 35.957582640504  0.892403025905354 -53.9763087294484 0.892403025905354 -53.9763087294484 0.450149951069577 35.9575826405041 
! Gamma         0                0                0                0                
! Port Impedance         50               0                50               0                
3.08                           0.451889031098846 35.6521411722746 0.891524054036643 -54.2820580292936 0.891524054036643 -54.2820580292936 0.451889031098846 35.6521411722745 
! Gamma         0                0                0                0                
! Port Impedance         50               0                50               0                
3.1                            0.453611863328036 35.3472980335954 0.890649106082331 -54.58720701148  0.890649106082331 -54.58720701148  0.453611863328035 35.3472980335955 
! Gamma         0                0                0                0                
! Port Impedance         50               0                50               0                
3.12                           0.455318493580657 35.0430498926536 0.889778264504556 -54.8917590466447 0.889778264504555 -54.8917590466447 0.455318493580657 35.0430498926536 
! Gamma         0                0                0                0                
! Port Impedance         50               0                50               0                
3.14                           0.457008968162015 34.7393933690653 0.888911610548832 -55.19571755317  0.888911610548832 -55.1957175531701 0.457008968162014 34.7393933690652 
! Gamma         0                0                0                0                
! Port Impedance         50               0                50               0                
3.16                           0.458683333832536 34.4363250349062 0.888049224251863 -55.4990859961775 0.888049224251863 -55.4990859961775 0.458683333832535 34.4363250349063 
! Gamma         0                0                0                0                
! Port Impedance         50               0                50               0                
3.18                           0.460341637781515 34.1338414157301 0.887191184449589 -55.8018678865335 0.887191184449589 -55.8018678865335 0.460341637781516 34.1338414157301 
! Gamma         0                0                0                0                
! Port Impedance         50               0                50               0                
3.2                            0.461983927601278 33.8319389915725 0.886337568785486 -56.1040667798676 0.886337568785486 -56.1040667798676 0.461983927601278 33.8319389915725 
! Gamma         0                0                0                0                
! Port Impedance         50               0                50               0                
3.22                           0.463610251261747 33.530614197943  0.885488453719077 -56.4056862756029 0.885488453719077 -56.4056862756029 0.463610251261746 33.530614197943  
! Gamma         0                0                0                0                
! Port Impedance         50               0                50               0                
3.24                           0.465220657085433 33.2298634268041 0.884643914534671 -56.7067300159986 0.884643914534671 -56.7067300159986 0.465220657085433 33.2298634268041 
! Gamma         0                0                0                0                
! Port Impedance         50               0                50               0                
3.26                           0.466815193722833 32.9296830275362 0.883804025350291 -57.007201685205 0.883804025350291 -57.007201685205 0.466815193722834 32.9296830275362 
! Gamma         0                0                0                0                
! Port Impedance         50               0                50               0                
3.28                           0.468393910128242 32.6300693078897 0.882968859126811 -57.3071050083316 0.882968859126811 -57.3071050083316 0.468393910128242 32.6300693078898 
! Gamma         0                0                0                0                
! Port Impedance         50               0                50               0                
3.3                            0.469956855535971 32.3310185349249 0.882138487677257 -57.6064437505268 0.882138487677257 -57.6064437505268 0.469956855535971 32.3310185349249 
! Gamma         0                0                0                0                
! Port Impedance         50               0                50               0                
3.32                           0.471504079436981 32.0325269359366 0.881312981676294 -57.9052217160713 0.881312981676294 -57.9052217160713 0.471504079436981 32.0325269359366 
! Gamma         0                0                0                0                
! Port Impedance         50               0                50               0                
3.34                           0.473035631555922 31.7345906993672 0.880492410669867 -58.2034427474834 0.880492410669867 -58.2034427474834 0.473035631555922 31.7345906993672 
! Gamma         0                0                0                0                
! Port Impedance         50               0                50               0                
3.36                           0.474551561828571 31.4372059757053 0.879676843084992 -58.5011107246376 0.879676843084992 -58.5011107246376 0.474551561828571 31.4372059757053 
! Gamma         0                0                0                0                
! Port Impedance         50               0                50               0                
3.38                           0.476051920379685 31.1403688783718 0.878866346239693 -58.7982295638955 0.878866346239693 -58.7982295638955 0.476051920379685 31.1403688783718 
! Gamma         0                0                0                0                
! Port Impedance         50               0                50               0                
3.4                            0.477536757501248 30.8440754845916 0.878060986353065 -59.0948032172505 0.878060986353065 -59.0948032172505 0.477536757501248 30.8440754845916 
! Gamma         0                0                0                0                
! Port Impedance         50               0                50               0                
3.42                           0.479006123631119 30.5483218362529 0.877260828555465 -59.3908356714838 0.877260828555465 -59.3908356714838 0.479006123631119 30.5483218362529 
! Gamma         0                0                0                0                
! Port Impedance         50               0                50               0                
3.44                           0.480460069332075 30.2531039407526 0.876465936898812 -59.6863309473349 0.876465936898812 -59.6863309473349 0.480460069332074 30.2531039407526 
! Gamma         0                0                0                0                
! Port Impedance         50               0                50               0                
3.46                           0.481898645271247 29.9584177718286 0.875676374366994 -59.9812930986838 0.875676374366994 -59.9812930986838 0.481898645271247 29.9584177718286 
! Gamma         0                0                0                0                
! Port Impedance         50               0                50               0                
3.48                           0.483321902199951 29.6642592703787 0.874892202886364 -60.2757262117466 0.874892202886364 -60.2757262117466 0.483321902199951 29.6642592703787 
! Gamma         0                0                0                0                
! Port Impedance         50               0                50               0                
3.5                            0.484729890933903 29.370624345266  0.874113483336336 -60.5696344042836 0.874113483336336 -60.5696344042836 0.484729890933902 29.370624345266  
! Gamma         0                0                0                0                
! Port Impedance         50               0                50               0                
3.52                           0.486122662333813 29.0775088741113 0.873340275560045 -60.863021824821 0.873340275560045 -60.863021824821 0.486122662333813 29.0775088741113 
! Gamma         0                0                0                0                
! Port Impedance         50               0                50               0                
3.54                           0.487500267286376 28.7849087040725 0.872572638375084 -61.1558926518842 0.872572638375084 -61.1558926518842 0.487500267286375 28.7849087040725 
! Gamma         0                0                0                0                
! Port Impedance         50               0                50               0                
3.56                           0.488862756685616 28.49281965261   0.871810629584309 -61.448251093245 0.871810629584309 -61.448251093245 0.488862756685616 28.49281965261   
! Gamma         0                0                0                0                
! Port Impedance         50               0                50               0                
3.58                           0.490210181414631 28.2012375082399 0.871054305986688 -61.740101385181 0.871054305986688 -61.740101385181 0.49021018141463 28.2012375082399 
! Gamma         0                0                0                0                
! Port Impedance         50               0                50               0                
3.6                            0.491542592327682 27.9101580312737 0.870303723388208 -62.0314477917476 0.870303723388208 -62.0314477917476 0.491542592327682 27.9101580312737 
! Gamma         0                0                0                0                
! Port Impedance         50               0                50               0                
3.62                           0.49286004023267 27.6195769545448 0.869558936612812 -62.3222946040629 0.869558936612812 -62.3222946040629 0.49286004023267 27.6195769545448 
! Gamma         0                0                0                0                
! Port Impedance         50               0                50               0                
3.64                           0.49416257587396 27.3294899841227 0.868819999513381 -62.6126461396054 0.868819999513381 -62.6126461396054 0.494162575873961 27.3294899841227 
! Gamma         0                0                0                0                
! Port Impedance         50               0                50               0                
3.66                           0.495450249915571 27.0398928000135 0.868086964982731 -62.9025067415236 0.868086964982731 -62.9025067415236 0.49545024991557 27.0398928000135 
! Gamma         0                0                0                0                
! Port Impedance         50               0                50               0                
3.68                           0.496723112924713 26.7507810568483 0.867359884964639 -63.1918807779585 0.867359884964639 -63.1918807779585 0.496723112924713 26.7507810568483 
! Gamma         0                0                0                0                
! Port Impedance         50               0                50               0                
3.7                            0.497981215355687 26.4621503845587 0.866638810464872 -63.4807726413789 0.866638810464873 -63.4807726413789 0.497981215355687 26.4621503845587 
! Gamma         0                0                0                0                
! Port Impedance         50               0                50               0                
3.72                           0.499224607534116 26.1739963890392 0.865923791562238 -63.7691867479279 0.865923791562237 -63.7691867479279 0.499224607534116 26.1739963890392 
! Gamma         0                0                0                0                
! Port Impedance         50               0                50               0                
3.74                           0.500453339641523 25.8863146527982 0.865214877419617 -64.0571275367827 0.865214877419616 -64.0571275367827 0.500453339641523 25.8863146527982 
! Gamma         0                0                0                0                
! Port Impedance         50               0                50               0                
3.76                           0.501667461700252 25.5991007355951 0.86451211629501 -64.3445994695263 0.86451211629501 -64.3445994695263 0.501667461700252 25.5991007355951 
! Gamma         0                0                0                0                
! Port Impedance         50               0                50               0                
3.78                           0.502867023558709 25.3123501750661 0.86381555555256 -64.6316070295307 0.863815555552559 -64.6316070295307 0.502867023558709 25.3123501750661 
! Gamma         0                0                0                0                
! Port Impedance         50               0                50               0                
3.8                            0.504052074876943 25.0260584873375 0.863125241673561 -64.9181547213533 0.863125241673561 -64.9181547213533 0.504052074876943 25.0260584873376 
! Gamma         0                0                0                0                
! Port Impedance         50               0                50               0                
3.82                           0.505222665112544 24.740221167627  0.862441220267451 -65.2042470701438 0.862441220267452 -65.2042470701438 0.505222665112544 24.740221167627  
! Gamma         0                0                0                0                
! Port Impedance         50               0                50               0                
3.84                           0.506378843506861 24.4548336908319 0.861763536082773 -65.489888621064 0.861763536082773 -65.489888621064 0.506378843506861 24.4548336908319 
! Gamma         0                0                0                0                
! Port Impedance         50               0                50               0                
3.86                           0.507520659071535 24.1698915121073 0.861092233018102 -65.7750839387187 0.861092233018102 -65.7750839387187 0.507520659071535 24.1698915121073 
! Gamma         0                0                0                0                
! Port Impedance         50               0                50               0                
3.88                           0.508648160575342 23.8853900674307 0.860427354132939 -66.0598376065983 0.860427354132939 -66.0598376065983 0.508648160575343 23.8853900674307 
! Gamma         0                0                0                0                
! Port Impedance         50               0                50               0                
3.9                            0.509761396531343 23.601324774156  0.859768941658567 -66.3441542265332 0.859768941658567 -66.3441542265333 0.509761396531343 23.601324774156  
! Gamma         0                0                0                0                
! Port Impedance         50               0                50               0                
3.92                           0.510860415184328 23.317691031555  0.85911703700885 -66.6280384181594 0.85911703700885 -66.6280384181594 0.510860415184327 23.3176910315551 
! Gamma         0                0                0                0                
! Port Impedance         50               0                50               0                
3.94                           0.511945264498562 23.0344842213488 0.858471680790991 -66.9114948183947 0.858471680790991 -66.9114948183947 0.511945264498562 23.0344842213488 
! Gamma         0                0                0                0                
! Port Impedance         50               0                50               0                
3.96                           0.513015992145826 22.7516997082261 0.857832912816234 -67.1945280809276 0.857832912816234 -67.1945280809276 0.513015992145825 22.7516997082261 
! Gamma         0                0                0                0                
! Port Impedance         50               0                50               0                
3.98                           0.51407264549373 22.4693328403516 0.857200772110502 -67.4771428757156 0.857200772110502 -67.4771428757156 0.514072645493731 22.4693328403516 
! Gamma         0                0                0                0                
! Port Impedance         50               0                50               0                
4                              0.515115271594326 22.187378949863  0.856575296924978 -67.7593438884955 0.856575296924978 -67.7593438884955 0.515115271594325 22.187378949863  
! Gamma         0                0                0                0                
! Port Impedance         50               0                50               0                
4.02                           0.516143917172982 21.9058333533567 0.85595652474662 -68.0411358203039 0.85595652474662 -68.0411358203039 0.516143917172982 21.9058333533567 
! Gamma         0                0                0                0                
! Port Impedance         50               0                50               0                
4.04                           0.517158628617542 21.624691352363  0.855344492308596 -68.3225233870088 0.855344492308596 -68.3225233870088 0.517158628617542 21.624691352363  
! Gamma         0                0                0                0                
! Port Impedance         50               0                50               0                
4.06                           0.518159451967746 21.3439482338102 0.854739235600662 -68.6035113188516 0.854739235600662 -68.6035113188516 0.518159451967746 21.3439482338102 
! Gamma         0                0                0                0                
! Port Impedance         50               0                50               0                
4.08                           0.519146432904913 21.0635992704788 0.854140789879445 -68.8841043599992 0.854140789879445 -68.8841043599992 0.519146432904913 21.0635992704788 
! Gamma         0                0                0                0                
! Port Impedance         50               0                50               0                
4.1                            0.520119616741888 20.7836397214445 0.85354918967866 -69.1643072681071 0.85354918967866 -69.1643072681071 0.520119616741888 20.7836397214445 
! Gamma         0                0                0                0                
! Port Impedance         50               0                50               0                
4.12                           0.521079048413241 20.5040648325112 0.852964468819238 -69.4441248138918 0.852964468819238 -69.4441248138918 0.521079048413241 20.5040648325112 
! Gamma         0                0                0                0                
! Port Impedance         50               0                50               0                
4.14                           0.522024772465713 20.2248698366342 0.852386660419365 -69.723561780714 0.852386660419365 -69.723561780714 0.522024772465713 20.2248698366342 
! Gamma         0                0                0                0                
! Port Impedance         50               0                50               0                
4.16                           0.522956833048909 19.9460499543327 0.851815796904434 -70.0026229641714 0.851815796904434 -70.0026229641713 0.522956833048909 19.9460499543327 
! Gamma         0                0                0                0                
! Port Impedance         50               0                50               0                
4.18                           0.523875273906235 19.6676003940926 0.851251910016911 -70.2813131717009 0.851251910016911 -70.2813131717009 0.523875273906235 19.6676003940926 
! Gamma         0                0                0                0                
! Port Impedance         50               0                50               0                
4.2                            0.524780138366062 19.38951635276   0.850695030826097 -70.5596372221914 0.850695030826097 -70.5596372221914 0.524780138366062 19.38951635276   
! Gamma         0                0                0                0                
! Port Impedance         50               0                50               0                
4.22                           0.525671469333132 19.1117930159244 0.850145189737794 -70.837599945605 0.850145189737794 -70.837599945605 0.525671469333132 19.1117930159244 
! Gamma         0                0                0                0                
! Port Impedance         50               0                50               0                
4.24                           0.526549309280186 18.834425558293  0.849602416503881 -71.1152061826084 0.849602416503881 -71.1152061826084 0.526549309280186 18.834425558293  
! Gamma         0                0                0                0                
! Port Impedance         50               0                50               0                
4.26                           0.527413700239812 18.557409144055  0.849066740231777 -71.3924607842127 0.849066740231777 -71.3924607842127 0.527413700239812 18.557409144055  
! Gamma         0                0                0                0                
! Port Impedance         50               0                50               0                
4.28                           0.528264683796521 18.2807389272376 0.848538189393804 -71.6693686114236 0.848538189393804 -71.6693686114236 0.528264683796521 18.2807389272376 
! Gamma         0                0                0                0                
! Port Impedance         50               0                50               0                
4.3                            0.529102301079024 18.0044100520519 0.848016791836447 -71.945934534899 0.848016791836447 -71.945934534899 0.529102301079024 18.0044100520519 
! Gamma         0                0                0                0                
! Port Impedance         50               0                50               0                
4.32                           0.529926592752733 17.7284176532308 0.8475025747895  -72.2221634346168 0.8475025747895  -72.2221634346168 0.529926592752732 17.7284176532308 
! Gamma         0                0                0                0                
! Port Impedance         50               0                50               0                
4.34                           0.530737599012454 17.4527568563574 0.846995564875107 -72.4980601995501 0.846995564875107 -72.4980601995501 0.530737599012454 17.4527568563574 
! Gamma         0                0                0                0                
! Port Impedance         50               0                50               0                
4.36                           0.531535359575296 17.1774227781853 0.846495788116689 -72.7736297273521 0.846495788116688 -72.7736297273521 0.531535359575296 17.1774227781853 
! Gamma         0                0                0                0                
! Port Impedance         50               0                50               0                
4.38                           0.532319913673764 16.9024105269502 0.846003269947753 -73.0488769240488 0.846003269947753 -73.0488769240488 0.532319913673765 16.9024105269502 
! Gamma         0                0                0                0                
! Port Impedance         50               0                50               0                
4.4                            0.533091300049055 16.627715202673  0.845518035220596 -73.32380670374  0.845518035220596 -73.32380670374  0.533091300049055 16.627715202673  
! Gamma         0                0                0                0                
! Port Impedance         50               0                50               0                
4.42                           0.533849556944537 16.3533318974549 0.845040108214881 -73.5984239883083 0.845040108214881 -73.5984239883083 0.533849556944537 16.3533318974549 
! Gamma         0                0                0                0                
! Port Impedance         50               0                50               0                
4.44                           0.53459472209942 16.0792556957643 0.844569512646102 -73.8727337071366 0.844569512646102 -73.8727337071366 0.53459472209942 16.0792556957643 
! Gamma         0                0                0                0                
! Port Impedance         50               0                50               0                
4.46                           0.535326832742602 15.8054816747159 0.844106271673927 -74.1467407968331 0.844106271673927 -74.1467407968331 0.535326832742602 15.8054816747159 
! Gamma         0                0                0                0                
! Port Impedance         50               0                50               0                
4.48                           0.536045925586696 15.5320049043419 0.843650407910415 -74.4204502009637 0.843650407910414 -74.4204502009637 0.536045925586696 15.5320049043419 
! Gamma         0                0                0                0                
! Port Impedance         50               0                50               0                
4.5                            0.536752036822233 15.2588204478559 0.843201943428119 -74.6938668697925 0.84320194342812 -74.6938668697925 0.536752036822232 15.2588204478559 
! Gamma         0                0                0                0                
! Port Impedance         50               0                50               0                
4.52                           0.537445202112029 14.9859233619084 0.842760899768064 -74.9669957600295 0.842760899768064 -74.9669957600295 0.537445202112029 14.9859233619084 
! Gamma         0                0                0                0                
! Port Impedance         50               0                50               0                
4.54                           0.538125456585726 14.7133086968362 0.842327297947588 -75.2398418345857 0.842327297947588 -75.2398418345857 0.538125456585726 14.7133086968362 
! Gamma         0                0                0                0                
! Port Impedance         50               0                50               0                
4.56                           0.538792834834491 14.4409714969034 0.841901158468077 -75.5124100623351 0.841901158468076 -75.5124100623351 0.538792834834491 14.4409714969034 
! Gamma         0                0                0                0                
! Port Impedance         50               0                50               0                
4.58                           0.539447370905873 14.1689068005364 0.841482501322553 -75.7847054178838 0.841482501322553 -75.7847054178838 0.539447370905872 14.1689068005364 
! Gamma         0                0                0                0                
! Port Impedance         50               0                50               0                
4.6                            0.54008909829882 13.897109640551  0.841071346003154 -76.0567328813463 0.841071346003153 -76.0567328813463 0.54008909829882 13.897109640551  
! Gamma         0                0                0                0                
! Port Impedance         50               0                50               0                
4.62                           0.54071804995885 13.6255750443734 0.840667711508464 -76.3284974381282 0.840667711508464 -76.3284974381282 0.54071804995885 13.6255750443734 
! Gamma         0                0                0                0                
! Port Impedance         50               0                50               0                
4.64                           0.541334258273363 13.354298034254  0.840271616350735 -76.6000040787151 0.840271616350735 -76.6000040787151 0.541334258273363 13.354298034254  
! Gamma         0                0                0                0                
! Port Impedance         50               0                50               0                
4.66                           0.541937755067103 13.0832736274754 0.839883078562959 -76.8712577984692 0.839883078562959 -76.8712577984692 0.541937755067103 13.0832736274754 
! Gamma         0                0                0                0                
! Port Impedance         50               0                50               0                
4.68                           0.542528571597766 12.8124968365532 0.839502115705822 -77.1422635974308 0.839502115705822 -77.1422635974308 0.542528571597766 12.8124968365532 
! Gamma         0                0                0                0                
! Port Impedance         50               0                50               0                
4.7                            0.543106738551743 12.5419626694311 0.839128744874524 -77.4130264801271 0.839128744874524 -77.4130264801271 0.543106738551743 12.5419626694311 
! Gamma         0                0                0                0                
! Port Impedance         50               0                50               0                
4.72                           0.543672286039997 12.2716661296698 0.838762982705459 -77.6835514553862 0.838762982705459 -77.6835514553862 0.543672286039998 12.2716661296698 
! Gamma         0                0                0                0                
! Port Impedance         50               0                50               0                
4.74                           0.544225243594081 12.0016022166298 0.838404845382772 -77.9538435361577 0.838404845382772 -77.9538435361577 0.544225243594081 12.0016022166298 
! Gamma         0                0                0                0                
! Port Impedance         50               0                50               0                
4.76                           0.544765640162275 11.7317659256487 0.838054348644776 -78.2239077393386 0.838054348644776 -78.2239077393386 0.544765640162275 11.7317659256487 
! Gamma         0                0                0                0                
! Port Impedance         50               0                50               0                
4.78                           0.54529350410586 11.4621522482121 0.837711507790236 -78.4937490856052 0.837711507790236 -78.4937490856052 0.545293504105861 11.4621522482121 
! Gamma         0                0                0                0                
! Port Impedance         50               0                50               0                
4.8                            0.54580886319551 11.1927561721201 0.83737633768452 -78.7633725992499 0.83737633768452 -78.7633725992499 0.54580886319551 11.1927561721201 
! Gamma         0                0                0                0                
! Port Impedance         50               0                50               0                
4.82                           0.546311744607807 10.923572681647  0.837048852765612 -79.0327833080247 0.837048852765612 -79.0327833080247 0.546311744607807 10.923572681647  
! Gamma         0                0                0                0                
! Port Impedance         50               0                50               0                
4.84                           0.546802174921879 10.6545967576971 0.836729067049995 -79.3019862429879 0.836729067049995 -79.3019862429879 0.546802174921879 10.6545967576971 
! Gamma         0                0                0                0                
! Port Impedance         50               0                50               0                
4.86                           0.547280180116142 10.3858233779541 0.836416994138389 -79.5709864383581 0.836416994138389 -79.5709864383581 0.547280180116142 10.3858233779541 
! Gamma         0                0                0                0                
! Port Impedance         50               0                50               0                
4.88                           0.54774578556517 10.1172475170265 0.836112647221365 -79.8397889313717 0.836112647221364 -79.8397889313717 0.54774578556517 10.1172475170265 
! Gamma         0                0                0                0                
! Port Impedance         50               0                50               0                
4.9                            0.548199016036664 9.84886414658731 0.835816039084805 -80.1083987621455 0.835816039084805 -80.1083987621455 0.548199016036664 9.84886414658731 
! Gamma         0                0                0                0                
! Port Impedance         50               0                50               0                
4.92                           0.548639895688536 9.58066823550978 0.835527182115248 -80.3768209735446 0.835527182115248 -80.3768209735446 0.548639895688537 9.58066823550977 
! Gamma         0                0                0                0                
! Port Impedance         50               0                50               0                
4.94                           0.549068448066097 9.31265474999768 0.835246088305078 -80.6450606110546 0.835246088305078 -80.6450606110546 0.549068448066097 9.31265474999769 
! Gamma         0                0                0                0                
! Port Impedance         50               0                50               0                
4.96                           0.549484696099343 9.04481865371192 0.834972769257584 -80.9131227226577 0.834972769257584 -80.9131227226577 0.549484696099343 9.04481865371192 
! Gamma         0                0                0                0                
! Port Impedance         50               0                50               0                
4.98                           0.549888662100355 8.77715490789215 0.834707236191886 -81.181012358714 0.834707236191886 -81.181012358714 0.549888662100355 8.77715490789214 
! Gamma         0                0                0                0                
! Port Impedance         50               0                50               0                
5                              0.550280367760781 8.50965847147447 0.834449499947713 -81.4487345718465 0.834449499947713 -81.4487345718465 0.550280367760781 8.50965847147446 
! Gamma         0                0                0                0                
! Port Impedance         50               0                50               0                
5.02                           0.55065983414943 8.24232430120496 0.834199570990055 -81.7162944168302 0.834199570990055 -81.7162944168302 0.55065983414943 8.24232430120496 
! Gamma         0                0                0                0                
! Port Impedance         50               0                50               0                
5.04                           0.551027081709949 7.97514735174933 0.833957459413662 -81.9836969504855 0.833957459413662 -81.9836969504855 0.551027081709949 7.97514735174933 
! Gamma         0                0                0                0                
! Port Impedance         50               0                50               0                
5.06                           0.551382130258602 7.70812257579853 0.833723174947423 -82.2509472315747 0.833723174947424 -82.2509472315747 0.551382130258602 7.70812257579852 
! Gamma         0                0                0                0                
! Port Impedance         50               0                50               0                
5.08                           0.551724998982129 7.44124492417077 0.833496726958589 -82.5180503207032 0.833496726958589 -82.5180503207032 0.551724998982129 7.44124492417076 
! Gamma         0                0                0                0                
! Port Impedance         50               0                50               0                
5.1                            0.552055706435705 7.17450934591005 0.833278124456871 -82.7850112802232 0.833278124456871 -82.7850112802232 0.552055706435705 7.17450934591006 
! Gamma         0                0                0                0                
! Port Impedance         50               0                50               0                
5.12                           0.552374270540976 6.90791078838098 0.833067376098389 -83.0518351741419 0.833067376098389 -83.0518351741419 0.552374270540976 6.90791078838098 
! Gamma         0                0                0                0                
! Port Impedance         50               0                50               0                
5.14                           0.552680708584186 6.64144419736055 0.832864490189491 -83.318527068032 0.832864490189492 -83.318527068032 0.552680708584186 6.64144419736055 
! Gamma         0                0                0                0                
! Port Impedance         50               0                50               0                
5.16                           0.552975037214384 6.37510451712634 0.832669474690429 -83.5850920289463 0.832669474690429 -83.5850920289463 0.552975037214384 6.37510451712633 
! Gamma         0                0                0                0                
! Port Impedance         50               0                50               0                
5.18                           0.553257272441717 6.10888669054209 0.832482337218894 -83.8515351253344 0.832482337218894 -83.8515351253344 0.553257272441717 6.10888669054209 
! Gamma         0                0                0                0                
! Port Impedance         50               0                50               0                
5.2                            0.553527429635793 5.84278565913989 0.832303085053415 -84.1178614269637 0.832303085053415 -84.1178614269637 0.553527429635794 5.84278565913989 
! Gamma         0                0                0                0                
! Port Impedance         50               0                50               0                
5.22                           0.553785523524138 5.57679636319976 0.832131725136625 -84.3840760048418 0.832131725136625 -84.3840760048418 0.553785523524138 5.57679636319976 
! Gamma         0                0                0                0                
! Port Impedance         50               0                50               0                
5.24                           0.554031568190711 5.31091374182647 0.831968264078371 -84.6501839311424 0.831968264078371 -84.6501839311424 0.554031568190712 5.31091374182646 
! Gamma         0                0                0                0                
! Port Impedance         50               0                50               0                
5.26                           0.554265577074515 5.04513273302378 0.831812708158708 -84.9161902791339 0.831812708158708 -84.9161902791339 0.554265577074515 5.04513273302378 
! Gamma         0                0                0                0                
! Port Impedance         50               0                50               0                
5.28                           0.554487562968262 4.77944827376612 0.831665063330732 -85.1821001231097 0.831665063330732 -85.1821001231097 0.554487562968262 4.77944827376612 
! Gamma         0                0                0                0                
! Port Impedance         50               0                50               0                
5.3                            0.55469753801713 4.51385530006806 0.83152533522329 -85.447918538322 0.83152533522329 -85.447918538322 0.55469753801713 4.51385530006806 
! Gamma         0                0                0                0                
! Port Impedance         50               0                50               0                
5.32                           0.554895513717574 4.24834874705144 0.831393529143545 -85.7136506009165 0.831393529143545 -85.7136506009165 0.554895513717573 4.24834874705144 
! Gamma         0                0                0                0                
! Port Impedance         50               0                50               0                
5.34                           0.555081500916221 3.9829235490105  0.831269650079398 -85.9793013878702 0.831269650079398 -85.9793013878702 0.555081500916221 3.9829235490105  
! Gamma         0                0                0                0                
! Port Impedance         50               0                50               0                
5.36                           0.555255509808828 3.71757463947489 0.831153702701781 -86.244875976931 0.831153702701782 -86.244875976931 0.555255509808828 3.71757463947489 
! Gamma         0                0                0                0                
! Port Impedance         50               0                50               0                
5.38                           0.555417549939312 3.45229695127092 0.831045691366801 -86.5103794465585 0.831045691366801 -86.5103794465585 0.555417549939312 3.45229695127092 
! Gamma         0                0                0                0                
! Port Impedance         50               0                50               0                
5.4                            0.555567630198839 3.18708541658105 0.83094562011775 -86.7758168758678 0.83094562011775 -86.7758168758678 0.555567630198839 3.18708541658105 
! Gamma         0                0                0                0                
! Port Impedance         50               0                50               0                
5.42                           0.555705758824995 2.9219349670017  0.830853492686979 -87.0411933445734 0.830853492686979 -87.0411933445734 0.555705758824994 2.9219349670017  
! Gamma         0                0                0                0                
! Port Impedance         50               0                50               0                
5.44                           0.555831943401005 2.65684053359959 0.830769312497624 -87.3065139329362 0.830769312497624 -87.3065139329362 0.555831943401005 2.65684053359959 
! Gamma         0                0                0                0                
! Port Impedance         50               0                50               0                
5.46                           0.555946190855031 2.39179704696679 0.830693082665203 -87.5717837217102 0.830693082665203 -87.5717837217102 0.555946190855031 2.39179704696679 
! Gamma         0                0                0                0                
! Port Impedance         50               0                50               0                
5.48                           0.556048507459526 2.12679943727432 0.830624805999069 -87.8370077920922 0.830624805999069 -87.8370077920922 0.556048507459526 2.12679943727432 
! Gamma         0                0                0                0                
! Port Impedance         50               0                50               0                
5.5                            0.556138898830659 1.8618426343246  0.830564485003724 -88.1021912256713 0.830564485003724 -88.1021912256713 0.556138898830659 1.8618426343246  
! Gamma         0                0                0                0                
! Port Impedance         50               0                50               0                
5.52                           0.55621736992779 1.59692156760317 0.830512121879994 -88.3673391043804 0.830512121879994 -88.3673391043804 0.55621736992779 1.59692156760317 
! Gamma         0                0                0                0                
! Port Impedance         50               0                50               0                
5.54                           0.556283925053026 1.33203116632912 0.830467718526071 -88.6324565104477 0.830467718526071 -88.6324565104477 0.556283925053026 1.33203116632912 
! Gamma         0                0                0                0                
! Port Impedance         50               0                50               0                
5.56                           0.556338567850819 1.06716635950494 0.830431276538405 -88.8975485263497 0.830431276538405 -88.8975485263497 0.556338567850819 1.06716635950494 
! Gamma         0                0                0                0                
! Port Impedance         50               0                50               0                
5.58                           0.556381301307643 0.802322075965614 0.830402797212468 -89.1626202347649 0.830402797212468 -89.1626202347649 0.556381301307644 0.802322075965613 
! Gamma         0                0                0                0                
! Port Impedance         50               0                50               0                
5.6                            0.556412127751723 0.537493244427189 0.830382281543375 -89.4276767185278 0.830382281543375 -89.4276767185278 0.556412127751723 0.537493244427189 
! Gamma         0                0                0                0                
! Port Impedance         50               0                50               0                
5.62                           0.556431048852823 0.27267479353492 0.830369730226364 -89.6927230605829 0.830369730226364 -89.6927230605829 0.556431048852823 0.27267479353492 
! Gamma         0                0                0                0                
! Port Impedance         50               0                50               0                
5.64                           0.556438065622104 0.00786165191101129 0.83036514365714 -89.9577643439405 0.83036514365714 -89.9577643439405 0.556438065622103 0.0078616519110113 
! Gamma         0                0                0                0                
! Port Impedance         50               0                50               0                
5.66                           0.556433178412033 -0.256951251797764 0.83036852193208 -90.2228056516308 0.83036852193208 -90.2228056516308 0.556433178412033 -0.256951251797764 
! Gamma         0                0                0                0                
! Port Impedance         50               0                50               0                
5.68                           0.556416386916358 -0.521768988872601 0.8303798648483  -90.48785206666  0.8303798648483  -90.48785206666  0.556416386916358 -0.521768988872601 
! Gamma         0                0                0                0                
! Port Impedance         50               0                50               0                
5.7                            0.556387690170145 -0.786596630475159 0.830399171903579 -90.7529086719648 0.830399171903579 -90.7529086719648 0.556387690170145 -0.78659663047516 
! Gamma         0                0                0                0                
! Port Impedance         50               0                50               0                
5.72                           0.556347086549867 -1.0514392475998 0.830426442296148 -91.0179805503677 0.830426442296149 -91.0179805503677 0.556347086549867 -1.05143924759981 
! Gamma         0                0                0                0                
! Port Impedance         50               0                50               0                
5.74                           0.556294573773567 -1.31630191102581 0.830461674924345 -91.2830727845322 0.830461674924346 -91.2830727845322 0.556294573773567 -1.31630191102582 
! Gamma         0                0                0                0                
! Port Impedance         50               0                50               0                
5.76                           0.556230148901066 -1.581189691269  0.830504868386118 -91.5481904569167 0.830504868386117 -91.5481904569167 0.556230148901065 -1.581189691269  
! Gamma         0                0                0                0                
! Port Impedance         50               0                50               0                
5.78                           0.556153808334245 -1.84610765853291 0.8305560209784  -91.8133386497288 0.8305560209784  -91.8133386497288 0.556153808334244 -1.84610765853291 
! Gamma         0                0                0                0                
! Port Impedance         50               0                50               0                
5.8                            0.556065547817382 -2.11106088265941 0.830615130696344 -92.0785224448788 0.830615130696344 -92.0785224448788 0.556065547817381 -2.11106088265941 
! Gamma         0                0                0                0                
! Port Impedance         50               0                50               0                
5.82                           0.555965362437555 -2.37605443307852 0.830682195232416 -92.3437469239321 0.830682195232416 -92.3437469239321 0.555965362437555 -2.37605443307852 
! Gamma         0                0                0                0                
! Port Impedance         50               0                50               0                
5.84                           0.5558532466251  -2.64109337875753 0.830757211975352 -92.6090171680616 0.830757211975352 -92.6090171680616 0.5558532466251  -2.64109337875753 
! Gamma         0                0                0                0                
! Port Impedance         50               0                50               0                
5.86                           0.555729194154138 -2.90618278814885 0.830840178008971 -92.8743382579982 0.830840178008971 -92.8743382579982 0.555729194154138 -2.90618278814885 
! Gamma         0                0                0                0                
! Port Impedance         50               0                50               0                
5.88                           0.555593198143159 -3.17132772913712 0.83093109011086 -93.1397152739809 0.830931090110859 -93.1397152739809 0.555593198143159 -3.17132772913712 
! Gamma         0                0                0                0                
! Port Impedance         50               0                50               0                
5.9                            0.555445251055682 -3.43653326898485 0.831029944750904 -93.4051532957056 0.831029944750903 -93.4051532957056 0.555445251055682 -3.43653326898485 
! Gamma         0                0                0                0                
! Port Impedance         50               0                50               0                
5.92                           0.55528534470096 -3.70180447427685 0.831136738089696 -93.6706574022723 0.831136738089696 -93.6706574022723 0.555285344700959 -3.70180447427685 
! Gamma         0                0                0                0                
! Port Impedance         50               0                50               0                
5.94                           0.555113470234765 -3.96714641086324 0.831251465976793 -93.9362326721317 0.831251465976792 -93.9362326721317 0.555113470234765 -3.96714641086324 
! Gamma         0                0                0                0                
! Port Impedance         50               0                50               0                
5.96                           0.554929618160239 -4.23256414380085 0.831374123948839 -94.201884183029 0.831374123948839 -94.201884183029 0.554929618160239 -4.23256414380085 
! Gamma         0                0                0                0                
! Port Impedance         50               0                50               0                
5.98                           0.554733778328797 -4.49806273729288 0.831504707227552 -94.4676170119473 0.831504707227552 -94.4676170119473 0.554733778328797 -4.49806273729288 
! Gamma         0                0                0                0                
! Port Impedance         50               0                50               0                
6                              0.554525939941117 -4.76364725462693 0.831643210717564 -94.7334362350486 0.831643210717564 -94.7334362350486 0.554525939941117 -4.76364725462693 
! Gamma         0                0                0                0                
! Port Impedance         50               0                50               0                
6.02                           0.554306091548183 -5.02932275811093 0.831789629004134 -94.9993469276128 0.831789629004134 -94.9993469276128 0.554306091548183 -5.02932275811093 
! Gamma         0                0                0                0                
! Port Impedance         50               0                50               0                
6.04                           0.554074221052403 -5.29509430900711 0.83194395635071 -95.2653541639756 0.831943956350709 -95.2653541639756 0.554074221052403 -5.29509430900711 
! Gamma         0                0                0                0                
! Port Impedance         50               0                50               0                
6.06                           0.553830315708803 -5.56096696746381 0.832106186696355 -95.5314630174628 0.832106186696355 -95.5314630174628 0.553830315708804 -5.56096696746381 
! Gamma         0                0                0                0                
! Port Impedance         50               0                50               0                
6.08                           0.553574362126283 -5.82694579244491 0.832276313653047 -95.7976785603237 0.832276313653047 -95.7976785603237 0.553574362126283 -5.82694579244491 
! Gamma         0                0                0                0                
! Port Impedance         50               0                50               0                
6.1                            0.553306346268952 -6.09303584165706 0.83245433050282 -96.0640058636618 0.83245433050282 -96.0640058636618 0.553306346268952 -6.09303584165706 
! Gamma         0                0                0                0                
! Port Impedance         50               0                50               0                
6.12                           0.553026253457536 -6.3592421714741 0.832640230194776 -96.3304499973623 0.832640230194776 -96.3304499973623 0.553026253457536 -6.35924217147409 
! Gamma         0                0                0                0                
! Port Impedance         50               0                50               0                
6.14                           0.552734068370863 -6.6255698368591 0.832834005341965 -96.5970160300181 0.832834005341965 -96.5970160300181 0.552734068370863 -6.6255698368591 
! Gamma         0                0                0                0                
! Port Impedance         50               0                50               0                
6.16                           0.552429775047419 -6.89202389128334 0.833035648218115 -96.8637090288522 0.833035648218115 -96.8637090288522 0.55242977504742 -6.89202389128334 
! Gamma         0                0                0                0                
! Port Impedance         50               0                50               0                
6.18                           0.552113356886994 -7.15860938664272 0.833245150754223 -97.130534059638 0.833245150754224 -97.130534059638 0.552113356886994 -7.15860938664272 
! Gamma         0                0                0                0                
! Port Impedance         50               0                50               0                
6.2                            0.551784796652393 -7.42533137317079 0.833462504535022 -97.3974961866156 0.833462504535022 -97.3974961866156 0.551784796652393 -7.42533137317079 
! Gamma         0                0                0                0                
! Port Impedance         50               0                50               0                
6.22                           0.551444076471243 -7.69219489934892 0.833687700795288 -97.6646004724064 0.833687700795288 -97.6646004724064 0.551444076471243 -7.69219489934893 
! Gamma         0                0                0                0                
! Port Impedance         50               0                50               0                
6.24                           0.551091177837873 -7.95920501181299 0.833920730416027 -97.9318519779234 0.833920730416027 -97.9318519779234 0.551091177837873 -7.95920501181298 
! Gamma         0                0                0                0                
! Port Impedance         50               0                50               0                
6.26                           0.550726081615285 -8.22636675525683 0.834161583920512 -98.1992557622783 0.834161583920512 -98.1992557622783 0.550726081615285 -8.22636675525682 
! Gamma         0                0                0                0                
! Port Impedance         50               0                50               0                
6.28                           0.550348768037208 -8.49368517233199 0.834410251470187 -98.4668168826858 0.834410251470187 -98.4668168826858 0.550348768037208 -8.49368517233199 
! Gamma         0                0                0                0                
! Port Impedance         50               0                50               0                
6.3                            0.549959216710242 -8.76116530354403 0.834666722860429 -98.7345403943637 0.834666722860429 -98.7345403943637 0.549959216710242 -8.76116530354403 
! Gamma         0                0                0                0                
! Port Impedance         50               0                50               0                
6.32                           0.549557406616095 -9.02881218714472 0.834930987516178 -99.0024313504293 0.834930987516178 -99.0024313504293 0.549557406616095 -9.02881218714472 
! Gamma         0                0                0                0                
! Port Impedance         50               0                50               0                
6.34                           0.54914331611391 -9.29663085902078 0.835203034487419 -99.2704948017923 0.835203034487419 -99.2704948017923 0.54914331611391 -9.29663085902078 
! Gamma         0                0                0                0                
! Port Impedance         50               0                50               0                
6.36                           0.548716922942684 -9.56462635257806 0.835482852444535 -99.5387357970437 0.835482852444535 -99.5387357970437 0.548716922942683 -9.56462635257806 
! Gamma         0                0                0                0                
! Port Impedance         50               0                50               0                
6.38                           0.548278204223788 -9.832803698622  0.835770429673518 -99.8071593823402 0.835770429673518 -99.8071593823402 0.548278204223788 -9.832803698622  
! Gamma         0                0                0                0                
! Port Impedance         50               0                50               0                
6.4                            0.547827136463588 -10.1011679252334 0.836065754071042 -100.075770601285 0.836065754071042 -100.075770601285 0.547827136463588 -10.1011679252334 
! Gamma         0                0                0                0                
! Port Impedance         50               0                50               0                
6.42                           0.547363695556159 -10.3697240576403 0.836368813139404 -100.344574494803 0.836368813139404 -100.344574494803 0.547363695556159 -10.3697240576403 
! Gamma         0                0                0                0                
! Port Impedance         50               0                50               0                
6.44                           0.546887856786109 -10.6384771180843 0.836679593981316 -100.613576101015 0.836679593981316 -100.613576101015 0.546887856786109 -10.6384771180843 
! Gamma         0                0                0                0                
! Port Impedance         50               0                50               0                
6.46                           0.546399594831508 -10.9074321256836 0.836998083294575 -100.882780455101 0.836998083294574 -100.882780455101 0.546399594831508 -10.9074321256836 
! Gamma         0                0                0                0                
! Port Impedance         50               0                50               0                
6.48                           0.545898883766921 -11.1765940962897 0.837324267366583 -101.152192589165 0.837324267366583 -101.152192589165 0.545898883766921 -11.1765940962897 
! Gamma         0                0                0                0                
! Port Impedance         50               0                50               0                
6.5                            0.545385697066558 -11.4459680423404 0.837658132068741 -101.421817532093 0.837658132068741 -101.421817532093 0.545385697066558 -11.4459680423404 
! Gamma         0                0                0                0                
! Port Impedance         50               0                50               0                
6.52                           0.544860007607534 -11.7155589727068 0.837999662850699 -101.691660309404 0.837999662850699 -101.691660309404 0.544860007607534 -11.7155589727068 
! Gamma         0                0                0                0                
! Port Impedance         50               0                50               0                
6.54                           0.544321787673244 -11.9853718925355 0.838348844734476 -101.961725943096 0.838348844734476 -101.961725943096 0.544321787673243 -11.9853718925355 
! Gamma         0                0                0                0                
! Port Impedance         50               0                50               0                
6.56                           0.543771008956856 -12.2554118030857 0.838705662308441 -102.232019451492 0.838705662308441 -102.232019451492 0.543771008956856 -12.2554118030857 
! Gamma         0                0                0                0                
! Port Impedance         50               0                50               0                
6.58                           0.543207642564932 -12.5256837015597 0.839070099721159 -102.502545849073 0.839070099721159 -102.502545849073 0.543207642564932 -12.5256837015597 
! Gamma         0                0                0                0                
! Port Impedance         50               0                50               0                
6.6                            0.542631659021165 -12.7961925809293 0.839442140675107 -102.773310146313 0.839442140675108 -102.773310146313 0.542631659021164 -12.7961925809293 
! Gamma         0                0                0                0                
! Port Impedance         50               0                50               0                
6.62                           0.542043028270245 -13.0669434297548 0.839821768420253 -103.044317349499 0.839821768420253 -103.044317349499 0.542043028270245 -13.0669434297548 
! Gamma         0                0                0                0                
! Port Impedance         50               0                50               0                
6.64                           0.541441719681863 -13.3379412319996 0.840208965747499 -103.315572460557 0.840208965747499 -103.315572460557 0.541441719681863 -13.3379412319996 
! Gamma         0                0                0                0                
! Port Impedance         50               0                50               0                
6.66                           0.540827702054835 -13.6091909668376 0.840603714981993 -103.587080476861 0.840603714981993 -103.587080476861 0.540827702054835 -13.6091909668376 
! Gamma         0                0                0                0                
! Port Impedance         50               0                50               0                
6.68                           0.54020094362137 -13.8806976084549 0.841005997976315 -103.858846391041 0.841005997976315 -103.858846391041 0.54020094362137 -13.8806976084549 
! Gamma         0                0                0                0                
! Port Impedance         50               0                50               0                
6.7                            0.539561412051481 -14.1524661258451 0.84141579610352 -104.13087519079 0.84141579610352 -104.13087519079 0.53956141205148 -14.1524661258451 
! Gamma         0                0                0                0                
! Port Impedance         50               0                50               0                
6.72                           0.538909074457526 -14.4245014825981 0.841833090250059 -104.403171858652 0.841833090250059 -104.403171858652 0.538909074457526 -14.4245014825981 
! Gamma         0                0                0                0                
! Port Impedance         50               0                50               0                
6.74                           0.538243897398909 -14.6968086366823 0.842257860808566 -104.675741371815 0.842257860808567 -104.675741371815 0.538243897398909 -14.6968086366823 
! Gamma         0                0                0                0                
! Port Impedance         50               0                50               0                
6.76                           0.53756584688692 -14.9693925402196 0.842690087670519 -104.948588701892 0.842690087670519 -104.948588701892 0.53756584688692 -14.9693925402196 
! Gamma         0                0                0                0                
! Port Impedance         50               0                50               0                
6.78                           0.536874888389732 -15.2422581392545 0.843129750218764 -105.221718814695 0.843129750218764 -105.221718814695 0.536874888389732 -15.2422581392546 
! Gamma         0                0                0                0                
! Port Impedance         50               0                50               0                
6.8                            0.53617098683755 -15.5154103735153 0.843576827319923 -105.495136670007 0.843576827319923 -105.495136670007 0.53617098683755 -15.5154103735153 
! Gamma         0                0                0                0                
! Port Impedance         50               0                50               0                
6.82                           0.535454106627928 -15.7888541761681 0.844031297316669 -105.768847221341 0.844031297316669 -105.768847221341 0.535454106627928 -15.7888541761681 
! Gamma         0                0                0                0                
! Port Impedance         50               0                50               0                
6.84                           0.534724211631237 -16.0625944735637 0.844493138019874 -106.042855415692 0.844493138019874 -106.042855415692 0.534724211631237 -16.0625944735637 
! Gamma         0                0                0                0                
! Port Impedance         50               0                50               0                
6.86                           0.53398126519631 -16.3366361849775 0.844962326700637 -106.317166193291 0.844962326700637 -106.317166193291 0.53398126519631 -16.3366361849775 
! Gamma         0                0                0                0                
! Port Impedance         50               0                50               0                
6.88                           0.533225230156252 -16.6109842223408 0.845438840082184 -106.591784487337 0.845438840082184 -106.591784487337 0.533225230156252 -16.6109842223408 
! Gamma         0                0                0                0                
! Port Impedance         50               0                50               0                
6.9                            0.532456068834424 -16.8856434899647 0.845922654331651 -106.866715223732 0.845922654331651 -106.866715223732 0.532456068834424 -16.8856434899647 
! Gamma         0                0                0                0                
! Port Impedance         50               0                50               0                
6.92                           0.531673743050606 -17.1606188842566 0.846413745051742 -107.141963320807 0.846413745051741 -107.141963320807 0.531673743050607 -17.1606188842566 
! Gamma         0                0                0                0                
! Port Impedance         50               0                50               0                
6.94                           0.530878214127345 -17.435915293428 0.846912087272266 -107.417533689038 0.846912087272266 -107.417533689038 0.530878214127345 -17.435915293428 
! Gamma         0                0                0                0                
! Port Impedance         50               0                50               0                
6.96                           0.53006944289648 -17.7115375971942 0.847417655441566 -107.693431230749 0.847417655441566 -107.693431230749 0.53006944289648 -17.7115375971942 
! Gamma         0                0                0                0                
! Port Impedance         50               0                50               0                
6.98                           0.529247389705866 -17.9874906664656 0.847930423417815 -107.96966083982 0.847930423417814 -107.96966083982 0.529247389705866 -17.9874906664656 
! Gamma         0                0                0                0                
! Port Impedance         50               0                50               0                
7                              0.528412014426285 -18.2637793630311 0.848450364460213 -108.246227401376 0.848450364460213 -108.246227401376 0.528412014426285 -18.2637793630311 
! Gamma         0                0                0                0                
! Port Impedance         50               0                50               0                
7.02                           0.52756327645856 -18.5404085392319 0.848977451220061 -108.523135791468 0.848977451220061 -108.523135791468 0.52756327645856 -18.5404085392319 
! Gamma         0                0                0                0                
! Port Impedance         50               0                50               0                
7.04                           0.526701134740863 -18.8173830376269 0.849511655731727 -108.80039087675 0.849511655731728 -108.80039087675 0.526701134740863 -18.8173830376269 
! Gamma         0                0                0                0                
! Port Impedance         50               0                50               0                
7.06                           0.525825547756236 -19.0947076906498 0.850052949403502 -109.077997514148 0.850052949403502 -109.077997514148 0.525825547756237 -19.0947076906498 
! Gamma         0                0                0                0                
! Port Impedance         50               0                50               0                
7.08                           0.524936473540324 -19.3723873202556 0.850601303008343 -109.355960550513 0.850601303008343 -109.355960550513 0.524936473540325 -19.3723873202556 
! Gamma         0                0                0                0                
! Port Impedance         50               0                50               0                
7.1                            0.524033869689309 -19.6504267375597 0.851156686674524 -109.634284822272 0.851156686674525 -109.634284822272 0.524033869689309 -19.6504267375597 
! Gamma         0                0                0                0                
! Port Impedance         50               0                50               0                
7.12                           0.523117693368078 -19.9288307424658 0.851719069876166 -109.912975155068 0.851719069876166 -109.912975155068 0.523117693368078 -19.9288307424658 
! Gamma         0                0                0                0                
! Port Impedance         50               0                50               0                
7.14                           0.522187901318609 -20.2076041232857 0.852288421423674 -110.192036363388 0.852288421423674 -110.192036363388 0.522187901318609 -20.2076041232857 
! Gamma         0                0                0                0                
! Port Impedance         50               0                50               0                
7.16                           0.521244449868576 -20.4867516563486 0.852864709454082 -110.471473250185 0.852864709454082 -110.471473250185 0.521244449868577 -20.4867516563486 
! Gamma         0                0                0                0                
! Port Impedance         50               0                50               0                
7.18                           0.520287294940201 -20.7662781056009 0.853447901421286 -110.751290606492 0.853447901421285 -110.751290606492 0.520287294940201 -20.7662781056009 
! Gamma         0                0                0                0                
! Port Impedance         50               0                50               0                
7.2                            0.519316392059326 -21.0461882221957 0.854037964086194 -111.031493211017 0.854037964086194 -111.031493211017 0.519316392059326 -21.0461882221957 
! Gamma         0                0                0                0                
! Port Impedance         50               0                50               0                
7.22                           0.518331696364741 -21.3264867440727 0.854634863506782 -111.312085829742 0.854634863506782 -111.312085829742 0.518331696364741 -21.3264867440727 
! Gamma         0                0                0                0                
! Port Impedance         50               0                50               0                
7.24                           0.517333162617745 -21.6071783955273 0.855238565028056 -111.593073215501 0.855238565028057 -111.593073215501 0.517333162617745 -21.6071783955273 
! Gamma         0                0                0                0                
! Port Impedance         50               0                50               0                
7.26                           0.516320745211962 -21.8882678867697 0.85584903327194 -111.874460107553 0.85584903327194 -111.874460107553 0.516320745211962 -21.8882678867697 
! Gamma         0                0                0                0                
! Port Impedance         50               0                50               0                
7.28                           0.515294398183413 -22.1697599134731 0.856466232127067 -112.156251231143 0.856466232127067 -112.156251231143 0.515294398183413 -22.1697599134731 
! Gamma         0                0                0                0                
! Port Impedance         50               0                50               0                
7.3                            0.514254075220843 -22.4516591563112 0.857090124738497 -112.438451297053 0.857090124738498 -112.438451297053 0.514254075220843 -22.4516591563113 
! Gamma         0                0                0                0                
! Port Impedance         50               0                50               0                
7.32                           0.513199729676315 -22.7339702804858 0.857720673497364 -112.721065001147 0.857720673497365 -112.721065001147 0.513199729676315 -22.7339702804858 
! Gamma         0                0                0                0                
! Port Impedance         50               0                50               0                
7.34                           0.512131314576066 -23.0166979352413 0.858357840030438 -113.004097023897 0.858357840030438 -113.004097023897 0.512131314576066 -23.0166979352413 
! Gamma         0                0                0                0                
! Port Impedance         50               0                50               0                
7.36                           0.511048782631646 -23.2998467533709 0.859001585189627 -113.287552029902 0.859001585189627 -113.287552029902 0.511048782631646 -23.2998467533709 
! Gamma         0                0                0                0                
! Port Impedance         50               0                50               0                
7.38                           0.509952086251323 -23.5834213507088 0.859651869041407 -113.571434667403 0.859651869041407 -113.571434667403 0.509952086251323 -23.5834213507088 
! Gamma         0                0                0                0                
! Port Impedance         50               0                50               0                
7.4                            0.50884117755178 -23.867426325613 0.860308650856195 -113.855749567774 0.860308650856195 -113.855749567775 0.50884117755178 -23.867426325613 
! Gamma         0                0                0                0                
! Port Impedance         50               0                50               0                
7.42                           0.507716008370091 -24.1518662584358 0.860971889097661 -114.140501345015 0.860971889097661 -114.140501345015 0.50771600837009 -24.1518662584358 
! Gamma         0                0                0                0                
! Port Impedance         50               0                50               0                
7.44                           0.506576530275992 -24.4367457109821 0.861641541411982 -114.425694595221 0.861641541411982 -114.425694595221 0.506576530275992 -24.4367457109821 
! Gamma         0                0                0                0                
! Port Impedance         50               0                50               0                
7.46                           0.505422694584449 -24.7220692259569 0.862317564617055 -114.711333896055 0.862317564617055 -114.711333896055 0.50542269458445 -24.7220692259569 
! Gamma         0                0                0                0                
! Port Impedance         50               0                50               0                
7.48                           0.504254452368526 -25.0078413264005 0.862999914691657 -114.997423806193 0.862999914691657 -114.997423806193 0.504254452368526 -25.0078413264005 
! Gamma         0                0                0                0                
! Port Impedance         50               0                50               0                
7.5                            0.503071754472552 -25.2940665151112 0.863688546764567 -115.28396886477 0.863688546764567 -115.28396886477 0.503071754472552 -25.2940665151113 
! Gamma         0                0                0                0                
! Port Impedance         50               0                50               0                
7.52                           0.501874551525611 -25.5807492740565 0.864383415103651 -115.570973590811 0.864383415103651 -115.570973590811 0.501874551525612 -25.5807492740565 
! Gamma         0                0                0                0                
! Port Impedance         50               0                50               0                
7.54                           0.500662793955334 -25.8678940637713 0.865084473104915 -115.858442482646 0.865084473104915 -115.858442482646 0.500662793955335 -25.8678940637713 
! Gamma         0                0                0                0                
! Port Impedance         50               0                50               0                
7.56                           0.499436432002017 -26.1555053227443 0.865791673281535 -116.146380017319 0.865791673281535 -116.146380017319 0.499436432002017 -26.1555053227443 
! Gamma         0                0                0                0                
! Port Impedance         50               0                50               0                
7.58                           0.49819541573306 -26.4435874667914 0.86650496725286 -116.434790649979 0.86650496725286 -116.434790649979 0.498195415733059 -26.4435874667914 
! Gamma         0                0                0                0                
! Port Impedance         50               0                50               0                
7.6                            0.496939695057733 -26.7321448884166 0.867224305733405 -116.723678813269 0.867224305733406 -116.723678813269 0.496939695057733 -26.7321448884166 
! Gamma         0                0                0                0                
! Port Impedance         50               0                50               0                
7.62                           0.495669219742283 -27.0211819561603 0.86794963852183 -117.013048916691 0.86794963852183 -117.013048916691 0.495669219742283 -27.0211819561602 
! Gamma         0                0                0                0                
! Port Impedance         50               0                50               0                
7.64                           0.494383939425364 -27.3107030139339 0.868680914489915 -117.302905345965 0.868680914489915 -117.302905345965 0.494383939425364 -27.3107030139339 
! Gamma         0                0                0                0                
! Port Impedance         50               0                50               0                
7.66                           0.493083803633818 -27.6007123803427 0.869418081571537 -117.593252462377 0.869418081571538 -117.593252462377 0.493083803633818 -27.6007123803427 
! Gamma         0                0                0                0                
! Port Impedance         50               0                50               0                
7.68                           0.491768761798806 -27.8912143479943 0.87016108675166 -117.884094602114 0.87016108675166 -117.884094602114 0.491768761798806 -27.8912143479943 
! Gamma         0                0                0                0                
! Port Impedance         50               0                50               0                
7.7                            0.49043876327227 -28.1822131827947 0.870909876055321 -118.175436075579 0.870909876055321 -118.175436075579 0.490438763272271 -28.1822131827947 
! Gamma         0                0                0                0                
! Port Impedance         50               0                50               0                
7.72                           0.489093757343776 -28.4737131232305 0.871664394536665 -118.467281166707 0.871664394536665 -118.467281166707 0.489093757343775 -28.4737131232305 
! Gamma         0                0                0                0                
! Port Impedance         50               0                50               0                
7.74                           0.487733693257688 -28.7657183796386 0.872424586267972 -118.759634132258 0.872424586267973 -118.759634132257 0.487733693257688 -28.7657183796386 
! Gamma         0                0                0                0                
! Port Impedance         50               0                50               0                
7.76                           0.486358520230728 -29.0582331334607 0.873190394328756 -119.052499201099 0.873190394328756 -119.052499201099 0.486358520230728 -29.0582331334607 
! Gamma         0                0                0                0                
! Port Impedance         50               0                50               0                
7.78                           0.484968187469885 -29.3512615364859 0.873961760794866 -119.345880573478 0.873961760794866 -119.345880573478 0.484968187469884 -29.3512615364859 
! Gamma         0                0                0                0                
! Port Impedance         50               0                50               0                
7.8                            0.4835626441907  -29.644807710079 0.874738626727668 -119.639782420284 0.874738626727668 -119.639782420284 0.483562644190701 -29.644807710079 
! Gamma         0                0                0                0                
! Port Impedance         50               0                50               0                
7.82                           0.482141839635933 -29.9388757443941 0.875520932163265 -119.934208882285 0.875520932163265 -119.934208882285 0.482141839635933 -29.9388757443941 
! Gamma         0                0                0                0                
! Port Impedance         50               0                50               0                
7.84                           0.48070572309459 -30.2334696975762 0.876308616101778 -120.229164069369 0.876308616101778 -120.229164069369 0.48070572309459 -30.2334696975762 
! Gamma         0                0                0                0                
! Port Impedance         50               0                50               0                
7.86                           0.479254243921346 -30.5285935949467 0.877101616496713 -120.524652059759 0.877101616496713 -120.524652059759 0.479254243921347 -30.5285935949467 
! Gamma         0                0                0                0                
! Port Impedance         50               0                50               0                
7.88                           0.477787351556346 -30.8242514281771 0.877899870244393 -120.820676899224 0.877899870244393 -120.820676899224 0.477787351556346 -30.8242514281771 
! Gamma         0                0                0                0                
! Port Impedance         50               0                50               0                
7.9                            0.476304995545394 -31.1204471544466 0.878703313173484 -121.117242600266 0.878703313173484 -121.117242600266 0.476304995545394 -31.1204471544466 
! Gamma         0                0                0                0                
! Port Impedance         50               0                50               0                
7.92                           0.474807125560533 -31.417184695587 0.879511880034614 -121.414353141313 0.879511880034614 -121.414353141313 0.474807125560533 -31.417184695587 
! Gamma         0                0                0                0                
! Port Impedance         50               0                50               0                
7.94                           0.473293691421019 -31.7144679372126 0.880325504490103 -121.712012465875 0.880325504490103 -121.712012465875 0.473293691421019 -31.7144679372126 
! Gamma         0                0                0                0                
! Port Impedance         50               0                50               0                
7.96                           0.47176464311469 -32.0123007278365 0.881144119103796 -122.010224481709 0.881144119103796 -122.010224481709 0.47176464311469 -32.0123007278365 
! Gamma         0                0                0                0                
! Port Impedance         50               0                50               0                
7.98                           0.470219930819737 -32.3106868779719 0.881967655331031 -122.308993059956 0.88196765533103 -122.308993059956 0.470219930819736 -32.3106868779719 
! Gamma         0                0                0                0                
! Port Impedance         50               0                50               0                
8                              0.46865950492687 -32.6096301592196 0.882796043508726 -122.608322034276 0.882796043508726 -122.608322034276 0.46865950492687 -32.6096301592196 
! Gamma         0                0                0                0                
! Port Impedance         50               0                50               0                
8.02                           0.467083316061899 -32.9091343033408 0.883629212845622 -122.90821519996 0.883629212845622 -122.90821519996 0.467083316061899 -32.9091343033407 
! Gamma         0                0                0                0                
! Port Impedance         50               0                50               0                
8.04                           0.465491315108707 -33.2092030013158 0.884467091412664 -123.208676313038 0.884467091412664 -123.208676313038 0.465491315108708 -33.2092030013158 
! Gamma         0                0                0                0                
! Port Impedance         50               0                50               0                
8.06                           0.463883453232642 -33.5098399023882 0.885309606133554 -123.509709089368 0.885309606133554 -123.509709089368 0.463883453232642 -33.5098399023882 
! Gamma         0                0                0                0                
! Port Impedance         50               0                50               0                
8.08                           0.46225968190431 -33.8110486130942 0.886156682775468 -123.811317203718 0.886156682775468 -123.811317203718 0.46225968190431 -33.8110486130942 
! Gamma         0                0                0                0                
! Port Impedance         50               0                50               0                
8.1                            0.460619952923787 -34.1128326962782 0.887008245939961 -124.11350428883 0.887008245939961 -124.11350428883 0.460619952923786 -34.1128326962782 
! Gamma         0                0                0                0                
! Port Impedance         50               0                50               0                
8.12                           0.458964218445233 -34.4151956700935 0.88786421905406 -124.416273934474 0.88786421905406 -124.416273934474 0.458964218445233 -34.4151956700935 
! Gamma         0                0                0                0                
! Port Impedance         50               0                50               0                
8.14                           0.457292431001932 -34.718141006988 0.888724524361566 -124.719629686491 0.888724524361566 -124.719629686491 0.457292431001932 -34.718141006988 
! Gamma         0                0                0                0                
! Port Impedance         50               0                50               0                
8.16                           0.455604543531726 -35.021672132677 0.889589082914566 -125.023575045819 0.889589082914566 -125.023575045819 0.455604543531726 -35.021672132677 
! Gamma         0                0                0                0                
! Port Impedance         50               0                50               0                
8.18                           0.453900509402887 -35.3257924250997 0.890457814565172 -125.328113467514 0.890457814565172 -125.328113467514 0.453900509402887 -35.3257924250997 
! Gamma         0                0                0                0                
! Port Impedance         50               0                50               0                
8.2                            0.452180282440384 -35.6305052133624 0.891330637957501 -125.633248359751 0.891330637957501 -125.633248359751 0.452180282440384 -35.6305052133625 
! Gamma         0                0                0                0                
! Port Impedance         50               0                50               0                
8.22                           0.450443816952571 -35.935813776667 0.892207470519898 -125.938983082817 0.892207470519898 -125.938983082817 0.450443816952571 -35.935813776667 
! Gamma         0                0                0                0                
! Port Impedance         50               0                50               0                
8.24                           0.448691067758288 -36.2417213432249 0.89308822845743 -126.245320948093 0.89308822845743 -126.245320948093 0.448691067758288 -36.2417213432249 
! Gamma         0                0                0                0                
! Port Impedance         50               0                50               0                
8.26                           0.44692199021438 -36.5482310891567 0.89397282674464 -126.552265217023 0.89397282674464 -126.552265217023 0.44692199021438 -36.5482310891567 
! Gamma         0                0                0                0                
! Port Impedance         50               0                50               0                
8.28                           0.445136540243614 -36.8553461373778 0.894861179118599 -126.859819100071 0.894861179118599 -126.859819100071 0.445136540243614 -36.8553461373778 
! Gamma         0                0                0                0                
! Port Impedance         50               0                50               0                
8.3                            0.443334674363025 -37.1630695564691 0.89575319807225 -127.167985755664 0.89575319807225 -127.167985755664 0.443334674363026 -37.163069556469 
! Gamma         0                0                0                0                
! Port Impedance         50               0                50               0                
8.32                           0.441516349712652 -37.471404359534 0.896648794848061 -127.476768289134 0.896648794848061 -127.476768289134 0.441516349712652 -37.471404359534 
! Gamma         0                0                0                0                
! Port Impedance         50               0                50               0                
8.34                           0.439681524084693 -37.7803535030411 0.89754787943201 -127.786169751633 0.89754787943201 -127.786169751633 0.439681524084693 -37.7803535030411 
! Gamma         0                0                0                0                
! Port Impedance         50               0                50               0                
8.36                           0.437830155953059 -38.0899198856526 0.898450360547896 -128.096193139052 0.898450360547897 -128.096193139052 0.437830155953059 -38.0899198856527 
! Gamma         0                0                0                0                
! Port Impedance         50               0                50               0                
8.38                           0.435962204503332 -38.4001063470387 0.899356145652009 -128.406841390922 0.899356145652009 -128.406841390922 0.435962204503332 -38.4001063470387 
! Gamma         0                0                0                0                
! Port Impedance         50               0                50               0                
8.4                            0.434077629663118 -38.7109156666779 0.900265140928156 -128.718117389305 0.900265140928156 -128.718117389305 0.434077629663118 -38.7109156666779 
! Gamma         0                0                0                0                
! Port Impedance         50               0                50               0                
8.42                           0.432176392132792 -39.0223505626439 0.901177251283072 -129.030023957676 0.901177251283073 -129.030023957676 0.432176392132792 -39.0223505626439 
! Gamma         0                0                0                0                
! Port Impedance         50               0                50               0                
8.44                           0.430258453416641 -39.3344136903779 0.902092380342217 -129.342563859795 0.902092380342217 -129.342563859795 0.430258453416641 -39.3344136903779 
! Gamma         0                0                0                0                
! Port Impedance         50               0                50               0                
8.46                           0.428323775854388 -39.6471076414478 0.903010430445972 -129.655739798572 0.903010430445973 -129.655739798572 0.428323775854388 -39.6471076414478 
! Gamma         0                0                0                0                
! Port Impedance         50               0                50               0                
8.48                           0.426372322653094 -39.960434942293 0.903931302646271 -129.969554414916 0.903931302646271 -129.969554414916 0.426372322653095 -39.960434942293 
! Gamma         0                0                0                0                
! Port Impedance         50               0                50               0                
8.5                            0.424404057919442 -40.2743980529566 0.904854896703643 -130.284010286582 0.904854896703643 -130.284010286582 0.424404057919442 -40.2743980529566 
! Gamma         0                0                0                0                
! Port Impedance         50               0                50               0                
8.52                           0.422418946692383 -40.5889993658028 0.905781111084718 -130.599109927008 0.905781111084718 -130.599109927008 0.422418946692383 -40.5889993658028 
! Gamma         0                0                0                0                
! Port Impedance         50               0                50               0                
8.54                           0.420416954976156 -40.9042412042225 0.906709842960192 -130.914855784139 0.906709842960192 -130.914855784139 0.420416954976156 -40.9042412042226 
! Gamma         0                0                0                0                
! Port Impedance         50               0                50               0                
8.56                           0.418398049773652 -41.2201258213239 0.907640988203257 -131.231250239249 0.907640988203257 -131.231250239249 0.418398049773652 -41.2201258213239 
! Gamma         0                0                0                0                
! Port Impedance         50               0                50               0                
8.58                           0.416362199120137 -41.536655398611 0.908574441388536 -131.54829560575 0.908574441388536 -131.54829560575 0.416362199120137 -41.536655398611 
! Gamma         0                0                0                0                
! Port Impedance         50               0                50               0                
8.6                            0.414309372117313 -41.8538320446486 0.909510095791516 -131.865994128003 0.909510095791516 -131.865994128003 0.414309372117313 -41.8538320446486 
! Gamma         0                0                0                0                
! Port Impedance         50               0                50               0                
8.62                           0.412239538967711 -42.1716577937145 0.910447843388496 -132.184347980109 0.910447843388496 -132.184347980109 0.412239538967711 -42.1716577937145 
! Gamma         0                0                0                0                
! Port Impedance         50               0                50               0                
8.64                           0.41015267100941 -42.4901346044384 0.911387574857082 -132.503359264703 0.911387574857082 -132.503359264703 0.41015267100941 -42.4901346044383 
! Gamma         0                0                0                0                
! Port Impedance         50               0                50               0                
8.66                           0.408048740751074 -42.8092643584276 0.912329179577222 -132.823030011744 0.912329179577222 -132.823030011744 0.408048740751073 -42.8092643584276 
! Gamma         0                0                0                0                
! Port Impedance         50               0                50               0                
8.68                           0.405927721907286 -43.1290488588814 0.913272545632806 -133.143362177288 0.913272545632806 -133.143362177288 0.405927721907286 -43.1290488588814 
! Gamma         0                0                0                0                
! Port Impedance         50               0                50               0                
8.7                            0.403789589434188 -43.449489829191 0.914217559813853 -133.46435764227 0.914217559813853 -133.46435764227 0.403789589434188 -43.449489829191 
! Gamma         0                0                0                0                
! Port Impedance         50               0                50               0                
8.72                           0.401634319565392 -43.7705889115276 0.915164107619279 -133.786018211271 0.91516410761928 -133.786018211271 0.401634319565393 -43.7705889115277 
! Gamma         0                0                0                0                
! Port Impedance         50               0                50               0                
8.74                           0.399461889848179 -44.0923476654185 0.916112073260294 -134.108345611287 0.916112073260294 -134.108345611287 0.399461889848179 -44.0923476654184 
! Gamma         0                0                0                0                
! Port Impedance         50               0                50               0                
8.76                           0.397272279179937 -44.4147675663091 0.917061339664397 -134.43134149049 0.917061339664396 -134.43134149049 0.397272279179937 -44.414767566309 
! Gamma         0                0                0                0                
! Port Impedance         50               0                50               0                
8.78                           0.395065467844869 -44.737850004114 0.918011788480034 -134.755007416992 0.918011788480035 -134.755007416992 0.395065467844869 -44.737850004114 
! Gamma         0                0                0                0                
! Port Impedance         50               0                50               0                
8.8                            0.392841437550919 -45.0615962817548 0.918963300081899 -135.0793448776  0.918963300081898 -135.0793448776  0.392841437550919 -45.0615962817548 
! Gamma         0                0                0                0                
! Port Impedance         50               0                50               0                
8.82                           0.390600171466921 -45.3860076136855 0.919915753576896 -135.404355276577 0.919915753576896 -135.404355276577 0.390600171466921 -45.3860076136855 
! Gamma         0                0                0                0                
! Port Impedance         50               0                50               0                
8.84                           0.388341654259959 -45.7110851244054 0.920869026810803 -135.730039934391 0.920869026810803 -135.730039934391 0.388341654259958 -45.7110851244054 
! Gamma         0                0                0                0                
! Port Impedance         50               0                50               0                
8.86                           0.386065872132911 -46.0368298469596 0.921822996375614 -136.056400086476 0.921822996375614 -136.056400086476 0.386065872132911 -46.0368298469596 
! Gamma         0                0                0                0                
! Port Impedance         50               0                50               0                
8.88                           0.383772812862169 -46.3632427214269 0.922777537617606 -136.383436881982 0.922777537617605 -136.383436881982 0.383772812862169 -46.3632427214268 
! Gamma         0                0                0                0                
! Port Impedance         50               0                50               0                
8.9                            0.381462465835518 -46.6903245933947 0.923732524646121 -136.711151382533 0.923732524646121 -136.711151382533 0.381462465835518 -46.6903245933947 
! Gamma         0                0                0                0                
! Port Impedance         50               0                50               0                
8.92                           0.379134822090154 -47.0180762124219 0.924687830343106 -137.039544560986 0.924687830343106 -137.039544560986 0.379134822090154 -47.018076212422 
! Gamma         0                0                0                0                
! Port Impedance         50               0                50               0                
8.94                           0.376789874350823 -47.3464982304875 0.92564332637338 -137.368617300186 0.92564332637338 -137.368617300186 0.376789874350823 -47.3464982304875 
! Gamma         0                0                0                0                
! Port Impedance         50               0                50               0                
8.96                           0.374427617068071 -47.6755912004272 0.926598883195697 -137.698370391729 0.926598883195697 -137.698370391729 0.374427617068071 -47.6755912004271 
! Gamma         0                0                0                0                
! Port Impedance         50               0                50               0                
8.98                           0.372048046456572 -48.005355574356 0.927554370074567 -138.028804534729 0.927554370074567 -138.028804534729 0.372048046456572 -48.0053555743559 
! Gamma         0                0                0                0                
! Port Impedance         50               0                50               0                
9                              0.369651160533526 -48.335791702077 0.928509655092888 -138.359920334589 0.928509655092888 -138.359920334589 0.369651160533526 -48.335791702077 
! Gamma         0                0                0                0                
! Port Impedance         50               0                50               0                
9.02                           0.3672369591571  -48.6668998294768 0.929464605165369 -138.691718301769 0.929464605165369 -138.691718301769 0.367236959157099 -48.6668998294769 
! Gamma         0                0                0                0                
! Port Impedance         50               0                50               0                
9.04                           0.364805444064895 -48.9986800969055 0.93041908605279 -139.024198850576 0.93041908605279 -139.024198850576 0.364805444064894 -48.9986800969055 
! Gamma         0                0                0                0                
! Port Impedance         50               0                50               0                
9.06                           0.362356618912414 -49.3311325375421 0.931372962377078 -139.357362297941 0.931372962377077 -139.357362297941 0.362356618912414 -49.3311325375421 
! Gamma         0                0                0                0                
! Port Impedance         50               0                50               0                
9.08                           0.359890489311514 -49.6642570757443 0.932326097637235 -139.691208862222 0.932326097637234 -139.691208862222 0.359890489311514 -49.6642570757443 
! Gamma         0                0                0                0                
! Port Impedance         50               0                50               0                
9.1                            0.357407062868808 -49.9980535253827 0.933278354226119 -140.025738662001 0.93327835422612 -140.025738662001 0.357407062868808 -49.9980535253827 
! Gamma         0                0                0                0                
! Port Impedance         50               0                50               0                
9.12                           0.35490634922401 -50.3325215881568 0.934229593448094 -140.3609517149  0.934229593448093 -140.3609517149  0.35490634922401 -50.3325215881568 
! Gamma         0                0                0                0                
! Port Impedance         50               0                50               0                
9.14                           0.352388360088181 -50.6676608518944 0.935179675537546 -140.696847936396 0.935179675537546 -140.696847936396 0.352388360088181 -50.6676608518944 
! Gamma         0                0                0                0                
! Port Impedance         50               0                50               0                
9.16                           0.349853109281867 -51.0034707888322 0.936128459678301 -141.033427138662 0.936128459678302 -141.033427138662 0.349853109281868 -51.0034707888322 
! Gamma         0                0                0                0                
! Port Impedance         50               0                50               0                
9.18                           0.347300612773092 -51.3399507538753 0.937075804023932 -141.370689029405 0.937075804023932 -141.370689029405 0.347300612773092 -51.3399507538753 
! Gamma         0                0                0                0                
! Port Impedance         50               0                50               0                
9.2                            0.344730888715181 -51.6770999828377 0.938021565718965 -141.708633210723 0.938021565718965 -141.708633210723 0.344730888715181 -51.6770999828377 
! Gamma         0                0                0                0                
! Port Impedance         50               0                50               0                
9.22                           0.342143957484398 -52.0149175906591 0.938965600921013 -142.047259177979 0.938965600921013 -142.047259177979 0.342143957484398 -52.0149175906591 
! Gamma         0                0                0                0                
! Port Impedance         50               0                50               0                
9.24                           0.339539841717358 -52.3534025695978 0.939907764823826 -142.386566318679 0.939907764823826 -142.386566318679 0.339539841717358 -52.3534025695978 
! Gamma         0                0                0                0                
! Port Impedance         50               0                50               0                
9.26                           0.336918566348188 -52.692553787399 0.940847911681266 -142.726553911381 0.940847911681266 -142.726553911381 0.336918566348187 -52.692553787399 
! Gamma         0                0                0                0                
! Port Impedance         50               0                50               0                
9.28                           0.334280158645413 -53.0323699854346 0.941785894832229 -143.067221124601 0.941785894832229 -143.067221124601 0.334280158645414 -53.0323699854346 
! Gamma         0                0                0                0                
! Port Impedance         50               0                50               0                
9.3                            0.331624648248543 -53.3728497768142 0.942721566726503 -143.408567015754 0.942721566726503 -143.408567015754 0.331624648248543 -53.3728497768142 
! Gamma         0                0                0                0                
! Port Impedance         50               0                50               0                
9.32                           0.328952067204304 -53.7139916444637 0.943654778951579 -143.750590530105 0.943654778951579 -143.750590530105 0.328952067204304 -53.7139916444637 
! Gamma         0                0                0                0                
! Port Impedance         50               0                50               0                
9.34                           0.326262450002529 -54.0557939391694 0.94458538226041 -144.093290499734 0.94458538226041 -144.093290499734 0.326262450002529 -54.0557939391694 
! Gamma         0                0                0                0                
! Port Impedance         50               0                50               0                
9.36                           0.323555833611631 -54.3982548775847 0.945513226600133 -144.436665642537 0.945513226600133 -144.436665642537 0.323555833611631 -54.3982548775847 
! Gamma         0                0                0                0                
! Port Impedance         50               0                50               0                
9.38                           0.320832257513662 -54.7413725401963 0.946438161141755 -144.78071456123 0.946438161141755 -144.78071456123 0.320832257513661 -54.7413725401963 
! Gamma         0                0                0                0                
! Port Impedance         50               0                50               0                
9.4                            0.318091763738902 -55.0851448692456 0.947360034310791 -145.125435742388 0.94736003431079 -145.125435742388 0.318091763738903 -55.0851448692456 
! Gamma         0                0                0                0                
! Port Impedance         50               0                50               0                
9.42                           0.315334396899971 -55.4295696666026 0.948278693818881 -145.470827555505 0.948278693818881 -145.470827555505 0.315334396899971 -55.4295696666026 
! Gamma         0                0                0                0                
! Port Impedance         50               0                50               0                
9.44                           0.312560204225398 -55.7746445915865 0.949193986696364 -145.816888252073 0.949193986696364 -145.816888252073 0.312560204225398 -55.7746445915865 
! Gamma         0                0                0                0                
! Port Impedance         50               0                50               0                
9.46                           0.309769235592652 -56.1203671587293 0.950105759325828 -146.163615964693 0.950105759325828 -146.163615964693 0.309769235592652 -56.1203671587292 
! Gamma         0                0                0                0                
! Port Impedance         50               0                50               0                
9.48                           0.306961543560571 -56.4667347354759 0.951013857476611 -146.511008706208 0.951013857476611 -146.511008706208 0.306961543560571 -56.4667347354758 
! Gamma         0                0                0                0                
! Port Impedance         50               0                50               0                
9.5                            0.304137183401177 -56.8137445398164 0.951918126340285 -146.859064368865 0.951918126340285 -146.859064368865 0.304137183401177 -56.8137445398164 
! Gamma         0                0                0                0                
! Port Impedance         50               0                50               0                
9.52                           0.301296213130824 -57.161393637842 0.952818410567086 -147.20778072351 0.952818410567086 -147.20778072351 0.301296213130824 -57.161393637842 
! Gamma         0                0                0                0                
! Port Impedance         50               0                50               0                
9.54                           0.298438693540662 -57.5096789412189 0.953714554303311 -147.557155418801 0.95371455430331 -147.557155418801 0.298438693540662 -57.5096789412189 
! Gamma         0                0                0                0                
! Port Impedance         50               0                50               0                
9.56                           0.295564688226374 -57.8585972045708 0.954606401229665 -147.907185980468 0.954606401229665 -147.907185980468 0.295564688226374 -57.8585972045708 
! Gamma         0                0                0                0                
! Port Impedance         50               0                50               0                
9.58                           0.292674263617153 -58.2081450227627 0.955493794600559 -148.257869810589 0.95549379460056 -148.257869810589 0.292674263617153 -58.2081450227627 
! Gamma         0                0                0                0                
! Port Impedance         50               0                50               0                
9.6                            0.289767489003879 -58.5583188280745 0.956376577284343 -148.609204186909 0.956376577284343 -148.609204186909 0.289767489003879 -58.5583188280745 
! Gamma         0                0                0                0                
! Port Impedance         50               0                50               0                
9.62                           0.286844436566477 -58.9091148872546 0.957254591804478 -148.961186262191 0.957254591804478 -148.961186262191 0.286844436566477 -58.9091148872546 
! Gamma         0                0                0                0                
! Port Impedance         50               0                50               0                
9.64                           0.283905181400396 -59.2605292984405 0.958127680381633 -149.313813063596 0.958127680381633 -149.313813063596 0.283905181400396 -59.2605292984405 
! Gamma         0                0                0                0                
! Port Impedance         50               0                50               0                
9.66                           0.280949801542202 -59.6125579879346 0.958995684976695 -149.667081492112 0.958995684976696 -149.667081492112 0.280949801542202 -59.6125579879346 
! Gamma         0                0                0                0                
! Port Impedance         50               0                50               0                
9.68                           0.277978377994227 -59.9651967068185 0.959858447334685 -150.020988322004 0.959858447334686 -150.020988322004 0.277978377994226 -59.9651967068185 
! Gamma         0                0                0                0                
! Port Impedance         50               0                50               0                
9.7                            0.274990994748247 -60.3184410273907 0.960715809029564 -150.375530200314 0.960715809029564 -150.375530200314 0.274990994748248 -60.3184410273907 
! Gamma         0                0                0                0                
! Port Impedance         50               0                50               0                
9.72                           0.271987738808166 -60.6722863394088 0.961567611509919 -150.730703646397 0.961567611509919 -150.730703646397 0.271987738808166 -60.6722863394088 
! Gamma         0                0                0                0                
! Port Impedance         50               0                50               0                
9.74                           0.268968700211643 -61.0267278461172 0.962413696145516 -151.086505051494 0.962413696145516 -151.086505051494 0.268968700211643 -61.0267278461172 
! Gamma         0                0                0                0                
! Port Impedance         50               0                50               0                
9.76                           0.265933972050661 -61.381760560035 0.9632539042747  -151.442930678352 0.9632539042747  -151.442930678352 0.265933972050661 -61.381760560035 
! Gamma         0                0                0                0                
! Port Impedance         50               0                50               0                
9.78                           0.262883650490973 -61.7373792984839 0.964088077252627 -151.799976660878 0.964088077252626 -151.799976660878 0.262883650490973 -61.7373792984838 
! Gamma         0                0                0                0                
! Port Impedance         50               0                50               0                
9.8                            0.259817834790413 -62.0935786788228 0.964916056500312 -152.157639003847 0.964916056500313 -152.157639003847 0.259817834790413 -62.0935786788228 
! Gamma         0                0                0                0                
! Port Impedance         50               0                50               0                
9.82                           0.256736627316028 -62.4503531133631 0.965737683554478 -152.515913582645 0.965737683554478 -152.515913582645 0.256736627316027 -62.4503531133631 
! Gamma         0                0                0                0                
! Port Impedance         50               0                50               0                
9.84                           0.253640133559989 -62.8076968039264 0.966552800118166 -152.874796143061 0.966552800118166 -152.874796143061 0.253640133559989 -62.8076968039264 
! Gamma         0                0                0                0                
! Port Impedance         50               0                50               0                
9.86                           0.250528462154277 -63.1656037360099 0.967361248112117 -153.234282301123 0.967361248112117 -153.234282301123 0.250528462154277 -63.1656037360099 
! Gamma         0                0                0                0                
! Port Impedance         50               0                50               0                
9.88                           0.247401724884069 -63.5240676725124 0.968162869726872 -153.594367542989 0.968162869726872 -153.594367542989 0.247401724884069 -63.5240676725125 
! Gamma         0                0                0                0                
! Port Impedance         50               0                50               0                
9.9                            0.244260036699833 -63.8830821469764 0.968957507475587 -153.95504722487 0.968957507475587 -153.95504722487 0.244260036699833 -63.8830821469764 
! Gamma         0                0                0                0                
! Port Impedance         50               0                50               0                
9.92                           0.241103515728066 -64.2426404562913 0.969745004247529 -154.31631657302 0.969745004247528 -154.31631657302 0.241103515728066 -64.2426404562913 
! Gamma         0                0                0                0                
! Port Impedance         50               0                50               0                
9.94                           0.237932283280675 -64.6027356527962 0.970525203362226 -154.678170683763 0.970525203362226 -154.678170683763 0.237932283280675 -64.6027356527963 
! Gamma         0                0                0                0                
! Port Impedance         50               0                50               0                
9.96                           0.234746463862941 -64.9633605357172 0.971297948624249 -155.040604523574 0.971297948624249 -155.040604523574 0.234746463862941 -64.9633605357172 
! Gamma         0                0                0                0                
! Port Impedance         50               0                50               0                
9.98                           0.231546185180059 -65.3245076418599 0.972063084378594 -155.403612929213 0.972063084378593 -155.403612929213 0.231546185180059 -65.3245076418599 
! Gamma         0                0                0                0                
! Port Impedance         50               0                50               0                
10                             0.228331578142214 -65.6861692354748 0.972820455566631 -155.767190607913 0.972820455566631 -155.767190607913 0.228331578142214 -65.6861692354749 
! Gamma         0                0                0                0                
! Port Impedance         50               0                50               0                
10.02                          0.225102776868164 -66.0483372971959 0.973569907782599 -156.131332137611 0.973569907782599 -156.131332137611 0.225102776868164 -66.0483372971958 
! Gamma         0                0                0                0                
! Port Impedance         50               0                50               0                
10.04                          0.221859918687315 -66.4110035119454 0.974311287330603 -156.496031967246 0.974311287330603 -156.496031967246 0.221859918687315 -66.4110035119455 
! Gamma         0                0                0                0                
! Port Impedance         50               0                50               0                
10.06                          0.218603144140244 -66.7741592556795 0.975044441282085 -156.8612844171  0.975044441282085 -156.8612844171  0.218603144140244 -66.7741592556795 
! Gamma         0                0                0                0                
! Port Impedance         50               0                50               0                
10.08                          0.215332596977659 -67.1377955808364 0.975769217533739 -157.227083679202 0.975769217533739 -157.227083679202 0.215332596977659 -67.1377955808364 
! Gamma         0                0                0                0                
! Port Impedance         50               0                50               0                
10.1                           0.212048424157767 -67.5019032003262 0.976485464865828 -157.593423817781 0.976485464865828 -157.593423817781 0.212048424157767 -67.5019032003263 
! Gamma         0                0                0                0                
! Port Impedance         50               0                50               0                
10.12                          0.208750775842024 -67.8664724698826 0.977193033000867 -157.960298769782 0.977193033000867 -157.960298769782 0.208750775842024 -67.8664724698825 
! Gamma         0                0                0                0                
! Port Impedance         50               0                50               0                
10.14                          0.205439805389257 -68.2314933685691 0.977891772662638 -158.32770234543 0.977891772662638 -158.32770234543 0.205439805389256 -68.2314933685691 
! Gamma         0                0                0                0                
! Port Impedance         50               0                50               0                
10.16                          0.202115669348117 -68.5969554772038 0.978581535635498 -158.69562822886 0.978581535635498 -158.69562822886 0.202115669348116 -68.5969554772039 
! Gamma         0                0                0                0                
! Port Impedance         50               0                50               0                
10.18                          0.19877852744787 -68.9628479544334 0.97926217482393 -159.064069978799 0.97926217482393 -159.064069978799 0.19877852744787 -68.9628479544334 
! Gamma         0                0                0                0                
! Port Impedance         50               0                50               0                
10.2                           0.195428542587489 -69.3291595101454 0.979933544312319 -159.433021029307 0.979933544312319 -159.433021029307 0.195428542587489 -69.3291595101453 
! Gamma         0                0                0                0                
! Port Impedance         50               0                50               0                
10.22                          0.192065880823033 -69.6958783758611 0.980595499424889 -159.80247469058 0.98059549942489 -159.80247469058 0.192065880823032 -69.6958783758611 
! Gamma         0                0                0                0                
! Port Impedance         50               0                50               0                
10.24                          0.188690711353315 -70.0629922717002 0.981247896785763 -160.172424149803 0.981247896785763 -160.172424149803 0.188690711353315 -70.0629922717003 
! Gamma         0                0                0                0                
! Port Impedance         50               0                50               0                
10.26                          0.185303206503828 -70.4304883694385 0.981890594379117 -160.542862472074 0.981890594379116 -160.542862472074 0.185303206503828 -70.4304883694385 
! Gamma         0                0                0                0                
! Port Impedance         50               0                50               0                
10.28                          0.181903541708921 -70.7983532511079 0.982523451609363 -160.91378260138 0.982523451609364 -160.91378260138 0.181903541708921 -70.798353251108 
! Gamma         0                0                0                0                
! Port Impedance         50               0                50               0                
10.3                           0.178491895492232 -71.1665728624995 0.983146329361341 -161.285177361629 0.983146329361341 -161.285177361629 0.178491895492232 -71.1665728624995 
! Gamma         0                0                0                0                
! Port Impedance         50               0                50               0                
10.32                          0.175068449445349 -71.5351324608188 0.983759090060444 -161.657039457753 0.983759090060444 -161.657039457753 0.175068449445349 -71.5351324608188 
! Gamma         0                0                0                0                
! Port Impedance         50               0                50               0                
10.34                          0.171633388204715 -71.9040165556225 0.984361597732651 -162.029361476858 0.984361597732651 -162.029361476859 0.171633388204715 -71.9040165556225 
! Gamma         0                0                0                0                
! Port Impedance         50               0                50               0                
10.36                          0.168186899426754 -72.2732088420093 0.984953718064427 -162.402135889445 0.984953718064427 -162.402135889445 0.168186899426754 -72.2732088420094 
! Gamma         0                0                0                0                
! Port Impedance         50               0                50               0                
10.38                          0.164729173761242 -72.6426921248588 0.985535318462415 -162.775355050682 0.985535318462415 -162.775355050682 0.164729173761242 -72.6426921248589 
! Gamma         0                0                0                0                
! Port Impedance         50               0                50               0                
10.4                           0.161260404822903 -73.0124482326971 0.986106268112899 -163.149011201739 0.986106268112899 -163.149011201739 0.161260404822903 -73.0124482326972 
! Gamma         0                0                0                0                
! Port Impedance         50               0                50               0                
10.42                          0.157780789161253 -73.3824579194969 0.986666438040974 -163.523096471187 0.986666438040974 -163.523096471187 0.157780789161253 -73.3824579194968 
! Gamma         0                0                0                0                
! Port Impedance         50               0                50               0                
10.44                          0.154290526228688 -73.7527007524105 0.987215701169379 -163.897602876448 0.987215701169379 -163.897602876448 0.154290526228688 -73.7527007524105 
! Gamma         0                0                0                0                
! Port Impedance         50               0                50               0                
10.46                          0.150789818346842 -74.123154983037 0.987753932376952 -164.27252232531 0.987753932376951 -164.27252232531 0.150789818346843 -74.123154983037 
! Gamma         0                0                0                0                
! Port Impedance         50               0                50               0                
10.48                          0.14727887067122 -74.493797399355 0.988281008556633 -164.6478466175  0.988281008556633 -164.6478466175  0.147278870671219 -74.4937973993551 
! Gamma         0                0                0                0                
! Port Impedance         50               0                50               0                
10.5                           0.143757891154126 -74.8646031548638 0.988796808673   -165.023567446314 0.988796808673   -165.023567446314 0.143757891154126 -74.8646031548639 
! Gamma         0                0                0                0                
! Port Impedance         50               0                50               0                
10.52                          0.14022709050593 -75.2355455707577 0.989301213819255 -165.399676400307 0.989301213819255 -165.399676400307 0.14022709050593 -75.2355455707577 
! Gamma         0                0                0                0                
! Port Impedance         50               0                50               0                
10.54                          0.136686682154681 -75.606595906059 0.989794107273633 -165.776164965041 0.989794107273632 -165.776164965041 0.136686682154681 -75.606595906059 
! Gamma         0                0                0                0                
! Port Impedance         50               0                50               0                
10.56                          0.133136882204118 -75.9777230895185 0.990275374555169 -166.153024524887 0.990275374555169 -166.153024524887 0.133136882204118 -75.9777230895187 
! Gamma         0                0                0                0                
! Port Impedance         50               0                50               0                
10.58                          0.129577909390127 -76.3488934056909 0.990744903478793 -166.530246364885 0.990744903478793 -166.530246364885 0.129577909390127 -76.3488934056909 
! Gamma         0                0                0                0                
! Port Impedance         50               0                50               0                
10.6                           0.126009985035695 -76.720070125815 0.991202584209667 -166.907821672667 0.991202584209667 -166.907821672667 0.126009985035695 -76.720070125815 
! Gamma         0                0                0                0                
! Port Impedance         50               0                50               0                
10.62                          0.122433333004427 -77.0912130718863 0.991648309316761 -167.285741540423 0.991648309316761 -167.285741540423 0.122433333004427 -77.0912130718863 
! Gamma         0                0                0                0                
! Port Impedance         50               0                50               0                
10.64                          0.118848179652717 -77.4622780994266 0.99208197382558 -167.66399696693 0.99208197382558 -167.66399696693 0.118848179652717 -77.4622780994267 
! Gamma         0                0                0                0                
! Port Impedance         50               0                50               0                
10.66                          0.115254753780661 -77.8332164807499 0.992503475270009 -168.042578859636 0.992503475270009 -168.042578859636 0.115254753780661 -77.8332164807499 
! Gamma         0                0                0                0                
! Port Impedance         50               0                50               0                
10.68                          0.111653286581845 -78.2039741657216 0.992912713743234 -168.421478036788 0.992912713743234 -168.421478036788 0.111653286581845 -78.2039741657213 
! Gamma         0                0                0                0                
! Port Impedance         50               0                50               0                
10.7                           0.108044011592157 -78.5744908907246 0.993309591947672 -168.800685229626 0.993309591947672 -168.800685229626 0.108044011592157 -78.5744908907246 
! Gamma         0                0                0                0                
! Port Impedance         50               0                50               0                
10.72                          0.104427164637808 -78.9446990982639 0.993694015243883 -169.180191084612 0.993694015243882 -169.180191084612 0.104427164637808 -78.9446990982637 
! Gamma         0                0                0                0                
! Port Impedance         50               0                50               0                
10.74                          0.100802983782813 -79.3145226186309 0.994065891698392 -169.559986165726 0.994065891698392 -169.559986165726 0.100802983782813 -79.3145226186308 
! Gamma         0                0                0                0                
! Port Impedance         50               0                50               0                
10.76                          0.0971717092762183 -79.6838750502756 0.994425132130412 -169.940060956793 0.994425132130412 -169.940060956793 0.0971717092762184 -79.6838750502757 
! Gamma         0                0                0                0                
! Port Impedance         50               0                50               0                
10.78                          0.0935335834994894 -80.0526577554841 0.994771650157376 -170.320405863878 0.994771650157377 -170.320405863878 0.0935335834994894 -80.0526577554842 
! Gamma         0                0                0                0                
! Port Impedance         50               0                50               0                
10.8                           0.0898888509145615 -80.4207573605169 0.995105362239275 -170.70101121771 0.995105362239275 -170.70101121771 0.0898888509145615 -80.4207573605169 
! Gamma         0                0                0                0                
! Port Impedance         50               0                50               0                
10.82                          0.0862377580132352 -80.7880426112755 0.995426187721726 -171.081867276161 0.995426187721726 -171.081867276161 0.0862377580132353 -80.7880426112755 
! Gamma         0                0                0                0                
! Port Impedance         50               0                50               0                
10.84                          0.082580553268835 -81.1543603821419 0.995734048877753 -171.462964226769 0.995734048877753 -171.462964226769 0.082580553268835 -81.1543603821421 
! Gamma         0                0                0                0                
! Port Impedance         50               0                50               0                
10.86                          0.0789174870913704 -81.519530559612 0.996028870948219 -171.844292189301 0.996028870948219 -171.844292189301 0.0789174870913704 -81.5195305596119 
! Gamma         0                0                0                0                
! Port Impedance         50               0                50               0                
10.88                          0.0752488117879243 -81.8833394126047 0.996310582180882 -172.225841218358 0.996310582180882 -172.225841218358 0.0752488117879244 -81.8833394126044 
! Gamma         0                0                0                0                
! Port Impedance         50               0                50               0                
10.9                           0.0715747815306882 -82.2455309004285 0.996579113868023 -172.607601306024 0.996579113868023 -172.607601306024 0.0715747815306883 -82.2455309004283 
! Gamma         0                0                0                0                
! Port Impedance         50               0                50               0                
10.92                          0.0678956523360948 -82.605795129312 0.996834400382622 -172.989562384547 0.996834400382622 -172.989562384547 0.0678956523360948 -82.6057951293121 
! Gamma         0                0                0                0                
! Port Impedance         50               0                50               0                
10.94                          0.0642116820601036 -82.963752803415 0.997076379213029 -173.371714329066 0.997076379213029 -173.371714329066 0.0642116820601036 -82.9637528034152 
! Gamma         0                0                0                0                
! Port Impedance         50               0                50               0                
10.96                          0.0605231304171148 -83.3189339496781 0.99730499099611 -173.754046960363 0.99730499099611 -173.754046960363 0.0605231304171148 -83.3189339496781 
! Gamma         0                0                0                0                
! Port Impedance         50               0                50               0                
10.98                          0.0568302590339116 -83.6707482959412 0.997520179548823 -174.136550047659 0.997520179548823 -174.136550047659 0.0568302590339116 -83.6707482959413 
! Gamma         0                0                0                0                
! Port Impedance         50               0                50               0                
11                             0.0531333315563606 -84.0184432153229 0.997721891898192 -174.519213311438 0.997721891898192 -174.519213311438 0.0531333315563605 -84.0184432153229 
! Gamma         0                0                0                0                
! Port Impedance         50               0                50               0                
11.02                          0.0494326138372414 -84.3610426908037 0.997910078309653 -174.9020264263  0.997910078309653 -174.9020264263  0.0494326138372414 -84.361042690804 
! Gamma         0                0                0                0                
! Port Impedance         50               0                50               0                
11.04                          0.0457283742520221 -84.6972564951621 0.998084692313738 -175.284979023845 0.998084692313738 -175.284979023845 0.0457283742520221 -84.6972564951619 
! Gamma         0                0                0                0                
! Port Impedance         50               0                50               0                
11.06                          0.0420208842224778 -85.0253411297522 0.998245690731072 -175.668060695586 0.998245690731072 -175.668060695586 0.0420208842224778 -85.0253411297516 
! Gamma         0                0                0                0                
! Port Impedance         50               0                50               0                
11.08                          0.0383104190901358 -85.3428797262723 0.998393033695651 -176.051260995885 0.998393033695651 -176.051260995885 0.0383104190901358 -85.3428797262721 
! Gamma         0                0                0                0                
! Port Impedance         50               0                50               0                
11.1                           0.0345972596036298 -85.6464198960648 0.998526684676384 -176.434569444913 0.998526684676384 -176.434569444913 0.0345972596036298 -85.6464198960648 
! Gamma         0                0                0                0                
! Port Impedance         50               0                50               0                
11.12                          0.030881694538652 -85.930849685017 0.998646610496871 -176.817975531634 0.998646610496871 -176.817975531634 0.030881694538652 -85.9308496850167 
! Gamma         0                0                0                0                
! Port Impedance         50               0                50               0                
11.14                          0.0271640255377997 -86.1882604249371 0.998752781353396 -177.201468716804 0.998752781353396 -177.201468716804 0.0271640255377997 -86.1882604249376 
! Gamma         0                0                0                0                
! Port Impedance         50               0                50               0                
11.16                          0.023444576638807 -86.4057262101145 0.998845170831117 -177.585038435993 0.998845170831117 -177.585038435993 0.023444576638807 -86.4057262101148 
! Gamma         0                0                0                0                
! Port Impedance         50               0                50               0                
11.18                          0.0197237146871353 -86.5605688420181 0.998923755918441 -177.968674102625 0.99892375591844 -177.968674102625 0.0197237146871353 -86.5605688420192 
! Gamma         0                0                0                0                
! Port Impedance         50               0                50               0                
11.2                           0.0160018983600993 -86.6090146680688 0.998988517019552 -178.352365111023 0.998988517019552 -178.352365111023 0.0160018983600993 -86.6090146680702 
! Gamma         0                0                0                0                
! Port Impedance         50               0                50               0                
11.22                          0.0122798165108334 -86.4542308566665 0.999039437965102 -178.736100839475 0.999039437965102 -178.736100839475 0.0122798165108334 -86.4542308566665 
! Gamma         0                0                0                0                
! Port Impedance         50               0                50               0                
11.24                          0.00855888760262884 -85.8310679957532 0.999076506021036 -179.119870653309 0.999076506021037 -179.119870653309 0.00855888760262881 -85.8310679957566 
! Gamma         0                0                0                0                
! Port Impedance         50               0                50               0                
11.26                          0.00484405923764963 -83.6614323403715 0.999099711895546 -179.503663907971 0.999099711895546 -179.503663907971 0.00484405923764962 -83.661432340373 
! Gamma         0                0                0                0                
! Port Impedance         50               0                50               0                
11.28                          0.00119961082487826 -65.5113009714998 0.999109049744145 -179.887469952119 0.999109049744145 -179.887469952119 0.00119961082487846 -65.511300971478 
! Gamma         0                0                0                0                
! Port Impedance         50               0                50               0                
11.3                           0.00268012611960611 79.0393789175417 0.999104517172866 179.728721869292 0.999104517172866 179.728721869292 0.00268012611960606 79.039378917547  
! Gamma         0                0                0                0                
! Port Impedance         50               0                50               0                
11.32                          0.00637925720603556 84.8575912123089 0.999086115239568 179.344922211908 0.999086115239569 179.344922211908 0.00637925720603556 84.8575912123078 
! Gamma         0                0                0                0                
! Port Impedance         50               0                50               0                
11.34                          0.0100977483901392 86.116883435223  0.999053848453356 178.961141728885 0.999053848453356 178.961141728885 0.0100977483901392 86.1168834352237 
! Gamma         0                0                0                0                
! Port Impedance         50               0                50               0                
11.36                          0.0138193246497121 86.491477097432  0.999007724772109 178.577391067793 0.99900772477211 178.577391067793 0.0138193246497121 86.4914770974326 
! Gamma         0                0                0                0                
! Port Impedance         50               0                50               0                
11.38                          0.0175412760722957 86.544268021456  0.998947755598137 178.193680867526 0.998947755598137 178.193680867526 0.0175412760722957 86.544268021456  
! Gamma         0                0                0                0                
! Port Impedance         50               0                50               0                
11.4                           0.0212626009584882 86.4442755601414 0.998873955771938 177.810021755218 0.998873955771937 177.810021755218 0.0212626009584882 86.4442755601408 
! Gamma         0                0                0                0                
! Port Impedance         50               0                50               0                
11.42                          0.0249827341345394 86.2598254435216 0.998786343564098 177.426424343168 0.998786343564097 177.426424343168 0.0249827341345394 86.2598254435213 
! Gamma         0                0                0                0                
! Port Impedance         50               0                50               0                
11.44                          0.0287012643005697 86.0238119126602 0.998684940665321 177.042899225766 0.998684940665322 177.042899225766 0.0287012643005697 86.0238119126605 
! Gamma         0                0                0                0                
! Port Impedance         50               0                50               0                
11.46                          0.0324178460741606 85.7540301436679 0.998569772174605 176.659456976446 0.998569772174605 176.659456976446 0.0324178460741606 85.7540301436682 
! Gamma         0                0                0                0                
! Port Impedance         50               0                50               0                
11.48                          0.0361321664237011 85.4609495925281 0.998440866585571 176.276108144636 0.998440866585571 176.276108144636 0.0361321664237011 85.4609495925279 
! Gamma         0                0                0                0                
! Port Impedance         50               0                50               0                
11.5                           0.0398439299501226 85.1511335850972 0.998298255770978 175.892863252737 0.998298255770978 175.892863252737 0.0398439299501226 85.1511335850974 
! Gamma         0                0                0                0                
! Port Impedance         50               0                50               0                
11.52                          0.0435528517509634 84.8289070457177 0.998141974965421 175.509732793109 0.998141974965421 175.509732793109 0.0435528517509634 84.8289070457177 
! Gamma         0                0                0                0                
! Port Impedance         50               0                50               0                
11.54                          0.0472586536907722 84.4972370210328 0.99797206274623 175.126727225083 0.997972062746231 175.126727225083 0.0472586536907722 84.4972370210328 
! Gamma         0                0                0                0                
! Port Impedance         50               0                50               0                
11.56                          0.0509610623383302 84.1582278765754 0.997788561012618 174.74385697199  0.997788561012618 174.74385697199  0.0509610623383301 84.1582278765757 
! Gamma         0                0                0                0                
! Port Impedance         50               0                50               0                
11.58                          0.0546598077771491 83.8134145150706 0.997591514963056 174.361132418217 0.997591514963056 174.361132418217 0.0546598077771491 83.8134145150705 
! Gamma         0                0                0                0                
! Port Impedance         50               0                50               0                
11.6                           0.0583546228997289 83.4639436082576 0.997380973070942 173.978563906286 0.997380973070942 173.978563906286 0.058354622899729 83.4639436082574 
! Gamma         0                0                0                0                
! Port Impedance         50               0                50               0                
11.62                          0.0620452429825459 83.1106897531183 0.997156987058563 173.596161733955 0.997156987058563 173.596161733955 0.0620452429825459 83.1106897531183 
! Gamma         0                0                0                0                
! Port Impedance         50               0                50               0                
11.64                          0.0657314054304041 82.7543322737322 0.996919611869383 173.213936151355 0.996919611869383 173.213936151355 0.0657314054304041 82.754332273732  
! Gamma         0                0                0                0                
! Port Impedance         50               0                50               0                
11.66                          0.0694128496263886 82.3954073924636 0.996668905638694 172.831897358155 0.996668905638694 172.831897358155 0.0694128496263887 82.3954073924635 
! Gamma         0                0                0                0                
! Port Impedance         50               0                50               0                
11.68                          0.0730893168495335 82.0343445181532 0.99640492966265 172.450055500752 0.99640492966265 172.450055500752 0.0730893168495335 82.0343445181532 
! Gamma         0                0                0                0                
! Port Impedance         50               0                50               0                
11.7                           0.0767605502369014 81.6714920198902 0.996127748365725 172.068420669505 0.996127748365725 172.068420669505 0.0767605502369013 81.6714920198901 
! Gamma         0                0                0                0                
! Port Impedance         50               0                50               0                
11.72                          0.0804262947753803 81.307135876641  0.995837429266621 171.687002895997 0.995837429266621 171.687002895997 0.0804262947753803 81.307135876641  
! Gamma         0                0                0                0                
! Port Impedance         50               0                50               0                
11.74                          0.0840862973136283 80.94151339872   0.995534042942673 171.305812150335 0.995534042942673 171.305812150335 0.0840862973136283 80.9415133987201 
! Gamma         0                0                0                0                
! Port Impedance         50               0                50               0                
11.76                          0.0877403065878339 80.574823476122  0.995217662992767 170.924858338487 0.995217662992766 170.924858338487 0.0877403065878339 80.5748234761218 
! Gamma         0                0                0                0                
! Port Impedance         50               0                50               0                
11.78                          0.0913880732569889 80.207234337658  0.994888365998832 170.544151299666 0.994888365998832 170.544151299666 0.0913880732569889 80.207234337658  
! Gamma         0                0                0                0                
! Port Impedance         50               0                50               0                
11.8                           0.0950293499446925 79.8388894986585 0.994546231485935 170.163700803741 0.994546231485934 170.163700803741 0.0950293499446924 79.8388894986585 
! Gamma         0                0                0                0                
! Port Impedance         50               0                50               0                
11.82                          0.0986638912853951 79.4699123720085 0.994191341881011 169.783516548706 0.994191341881011 169.783516548706 0.0986638912853951 79.4699123720085 
! Gamma         0                0                0                0                
! Port Impedance         50               0                50               0                
11.84                          0.102291453973576 79.100409880202  0.993823782470285 169.403608158181 0.993823782470285 169.403608158181 0.102291453973576 79.1004098802019 
! Gamma         0                0                0                0                
! Port Impedance         50               0                50               0                
11.86                          0.105911796814766 78.7304753120121 0.993443641355422 169.023985178965 0.993443641355422 169.023985178965 0.105911796814766 78.7304753120121 
! Gamma         0                0                0                0                
! Port Impedance         50               0                50               0                
11.88                          0.1095246807776  78.3601906017675 0.993051009408436 168.644657078633 0.993051009408437 168.644657078633 0.1095246807776  78.3601906017674 
! Gamma         0                0                0                0                
! Port Impedance         50               0                50               0                
11.9                           0.113129869046307 77.9896281628687 0.992645980225435 168.265633243177 0.992645980225435 168.265633243177 0.113129869046307 77.9896281628688 
! Gamma         0                0                0                0                
! Port Impedance         50               0                50               0                
11.92                          0.116727127073166 77.6188523739606 0.992228650079203 167.886922974705 0.992228650079203 167.886922974705 0.116727127073166 77.6188523739606 
! Gamma         0                0                0                0                
! Port Impedance         50               0                50               0                
11.94                          0.120316222630576 77.2479207921068 0.99179911787071 167.508535489178 0.991799117870709 167.508535489178 0.120316222630576 77.2479207921069 
! Gamma         0                0                0                0                
! Port Impedance         50               0                50               0                
11.96                          0.123896925862478 76.8768851496701 0.991357485079557 167.130479914208 0.991357485079558 167.130479914208 0.123896925862478 76.8768851496702 
! Gamma         0                0                0                0                
! Port Impedance         50               0                50               0                
11.98                          0.127469009334894 76.5057921785344 0.990903855713445 166.752765286903 0.990903855713445 166.752765286903 0.127469009334894 76.5057921785344 
! Gamma         0                0                0                0                
! Port Impedance         50               0                50               0                
12                             0.131032248085417 76.1346842955209 0.99043833625666 166.375400551762 0.99043833625666 166.375400551762 0.131032248085417 76.1346842955209 
! Gamma         0                0                0                0                
! Port Impedance         50               0                50               0                
12.02                          0.134586419671522 75.7636001754855 0.989961035617693 165.99839455863  0.989961035617693 165.99839455863  0.134586419671522 75.7636001754855 
! Gamma         0                0                0                0                
! Port Impedance         50               0                50               0                
12.04                          0.13813130421757 75.3925752329516 0.989472065075978 165.621756060705 0.989472065075978 165.621756060705 0.13813130421757 75.3925752329518 
! Gamma         0                0                0                0                
! Port Impedance         50               0                50               0                
12.06                          0.141666684460433 75.0216420288351 0.98897153822784 165.245493712594 0.98897153822784 165.245493712594 0.141666684460432 75.0216420288351 
! Gamma         0                0                0                0                
! Port Impedance         50               0                50               0                
12.08                          0.145192345793635 74.6508306154736 0.988459570931682 164.869616068437 0.988459570931682 164.869616068437 0.145192345793635 74.6508306154735 
! Gamma         0                0                0                0                
! Port Impedance         50               0                50               0                
12.1                           0.148708076309989 74.2801688305805 0.987936281252478 164.494131580075 0.987936281252478 164.494131580075 0.148708076309989 74.2801688305804 
! Gamma         0                0                0                0                
! Port Impedance         50               0                50               0                
12.12                          0.152213666842626 73.9096825487063 0.987401789405593 164.119048595284 0.987401789405593 164.119048595284 0.152213666842626 73.9096825487064 
! Gamma         0                0                0                0                
! Port Impedance         50               0                50               0                
12.14                          0.155708911004426 73.5393958971804 0.986856217700016 163.744375356061 0.986856217700016 163.744375356061 0.155708911004426 73.5393958971804 
! Gamma         0                0                0                0                
! Port Impedance         50               0                50               0                
12.16                          0.159193605225777 73.1693314422334 0.986299690481029 163.370119996972 0.986299690481029 163.370119996972 0.159193605225777 73.1693314422334 
! Gamma         0                0                0                0                
! Port Impedance         50               0                50               0                
12.18                          0.162667548790654 72.7995103499771 0.985732334072374 162.996290543557 0.985732334072374 162.996290543557 0.162667548790654 72.7995103499771 
! Gamma         0                0                0                0                
! Port Impedance         50               0                50               0                
12.2                           0.166130543870983 72.4299525261018 0.985154276717964 162.622894910789 0.985154276717963 162.622894910789 0.166130543870983 72.4299525261018 
! Gamma         0                0                0                0                
! Port Impedance         50               0                50               0                
12.22                          0.169582395559284 72.0606767374913 0.984565648523185 162.249940901604 0.984565648523184 162.249940901604 0.169582395559284 72.0606767374913 
! Gamma         0                0                0                0                
! Port Impedance         50               0                50               0                
12.24                          0.173022911899562 71.691700718415  0.983966581395856 161.877436205475 0.983966581395856 161.877436205475 0.173022911899562 71.691700718415  
! Gamma         0                0                0                0                
! Port Impedance         50               0                50               0                
12.26                          0.176451903916452 71.3230412635248 0.983357208986862 161.505388397062 0.983357208986862 161.505388397062 0.176451903916453 71.3230412635249 
! Gamma         0                0                0                0                
! Port Impedance         50               0                50               0                
12.28                          0.179869185642602 70.9547143095216 0.982737666630544 161.133804934904 0.982737666630544 161.133804934904 0.179869185642602 70.9547143095217 
! Gamma         0                0                0                0                
! Port Impedance         50               0                50               0                
12.3                           0.183274574144282 70.5867350070663 0.982108091284872 160.762693160186 0.982108091284872 160.762693160186 0.183274574144282 70.5867350070663 
! Gamma         0                0                0                0                
! Port Impedance         50               0                50               0                
12.32                          0.186667889545239 70.2191177842596 0.981468621471458 160.39206029556  0.981468621471458 160.39206029556  0.186667889545239 70.2191177842597 
! Gamma         0                0                0                0                
! Port Impedance         50               0                50               0                
12.34                          0.190048955048778 69.8518764028242 0.980819397215451 160.021913444022 0.980819397215451 160.021913444022 0.190048955048778 69.8518764028242 
! Gamma         0                0                0                0                
! Port Impedance         50               0                50               0                
12.36                          0.193417596958085 69.4850240079431 0.980160559985368 159.652259587852 0.980160559985368 159.652259587852 0.193417596958085 69.485024007943  
! Gamma         0                0                0                0                
! Port Impedance         50               0                50               0                
12.38                          0.196773644694788 69.1185731725761 0.979492252632901 159.283105587618 0.979492252632901 159.283105587618 0.196773644694788 69.1185731725761 
! Gamma         0                0                0                0                
! Port Impedance         50               0                50               0                
12.4                           0.200116930815776 68.7525359369546 0.978814619332737 158.914458181231 0.978814619332737 158.914458181231 0.200116930815776 68.7525359369546 
! Gamma         0                0                0                0                
! Port Impedance         50               0                50               0                
12.42                          0.203447291028273 68.386923843857  0.978127805522461 158.546323983065 0.978127805522461 158.546323983065 0.203447291028272 68.386923843857  
! Gamma         0                0                0                0                
! Port Impedance         50               0                50               0                
12.44                          0.20676456420319 68.0217479701842 0.977431957842557 158.178709483133 0.977431957842557 158.178709483133 0.20676456420319 68.0217479701842 
! Gamma         0                0                0                0                
! Port Impedance         50               0                50               0                
12.46                          0.210068592386758 67.6570189552825 0.976727224076567 157.811621046323 0.976727224076567 157.811621046323 0.210068592386758 67.6570189552824 
! Gamma         0                0                0                0                
! Port Impedance         50               0                50               0                
12.48                          0.213359220810469 67.2927470264001 0.976013753091443 157.445064911693 0.976013753091444 157.445064911693 0.213359220810469 67.2927470264001 
! Gamma         0                0                0                0                
! Port Impedance         50               0                50               0                
12.5                           0.216636297899328 66.9289420216186 0.975291694778141 157.079047191821 0.975291694778141 157.079047191821 0.216636297899328 66.9289420216186 
! Gamma         0                0                0                0                
! Port Impedance         50               0                50               0                
12.52                          0.219899675278443 66.5656134105464 0.97456119999248 156.713573872214 0.97456119999248 156.713573872214 0.219899675278443 66.5656134105465 
! Gamma         0                0                0                0                
! Port Impedance         50               0                50               0                
12.54                          0.223149207777974 66.2027703130339 0.973822420496325 156.348650810775 0.973822420496325 156.348650810775 0.223149207777974 66.2027703130338 
! Gamma         0                0                0                0                
! Port Impedance         50               0                50               0                
12.56                          0.226384753436455 65.8404215161313 0.973075508899128 155.984283737324 0.973075508899128 155.984283737324 0.226384753436455 65.8404215161313 
! Gamma         0                0                0                0                
! Port Impedance         50               0                50               0                
12.58                          0.22960617350252 65.4785754894864 0.97232061859984 155.620478253178 0.97232061859984 155.620478253178 0.22960617350252 65.4785754894864 
! Gamma         0                0                0                0                
! Port Impedance         50               0                50               0                
12.6                           0.232813332435041 65.117240399352  0.971557903729269 155.257239830779 0.971557903729269 155.257239830779 0.232813332435041 65.1172403993521 
! Gamma         0                0                0                0                
! Port Impedance         50               0                50               0                
12.62                          0.236006097901726 64.7564241213555 0.970787519092894 154.894573813389 0.970787519092894 154.894573813389 0.236006097901726 64.7564241213555 
! Gamma         0                0                0                0                
! Port Impedance         50               0                50               0                
12.64                          0.239184340776181 64.3961342521627 0.970009620114162 154.532485414825 0.970009620114162 154.532485414825 0.239184340776181 64.3961342521627 
! Gamma         0                0                0                0                
! Port Impedance         50               0                50               0                
12.66                          0.242347935133471 64.0363781201545 0.969224362778332 154.170979719256 0.969224362778332 154.170979719256 0.242347935133471 64.0363781201545 
! Gamma         0                0                0                0                
! Port Impedance         50               0                50               0                
12.68                          0.245496758244219 63.6771627952172 0.968431903576857 153.81006168105  0.968431903576858 153.81006168105  0.245496758244219 63.6771627952172 
! Gamma         0                0                0                0                
! Port Impedance         50               0                50               0                
12.7                           0.24863069056724 63.3184950977438 0.967632399452374 153.449736124673 0.967632399452374 153.449736124673 0.24863069056724 63.3184950977437 
! Gamma         0                0                0                0                
! Port Impedance         50               0                50               0                
12.72                          0.251749615740784 62.9603816069213 0.966826007744297 153.090007744635 0.966826007744297 153.090007744635 0.251749615740784 62.9603816069213 
! Gamma         0                0                0                0                
! Port Impedance         50               0                50               0                
12.74                          0.254853420572371 62.6028286683825 0.966012886135065 152.730881105496 0.966012886135065 152.730881105496 0.254853420572371 62.6028286683826 
! Gamma         0                0                0                0                
! Port Impedance         50               0                50               0                
12.76                          0.257941995027294 62.245842401282  0.96519319259706 152.372360641908 0.96519319259706 152.372360641908 0.257941995027293 62.245842401282  
! Gamma         0                0                0                0                
! Port Impedance         50               0                50               0                
12.78                          0.261015232215773 61.889428704858  0.964367085340222 152.014450658714 0.964367085340222 152.014450658714 0.261015232215773 61.889428704858  
! Gamma         0                0                0                0                
! Port Impedance         50               0                50               0                
12.8                           0.264073028378849 61.5335932645267 0.963534722760389 151.657155331093 0.963534722760389 151.657155331093 0.264073028378849 61.5335932645267 
! Gamma         0                0                0                0                
! Port Impedance         50               0                50               0                
12.82                          0.26711528287299 61.1783415575609 0.962696263388377 151.30047870475  0.962696263388377 151.30047870475  0.26711528287299 61.1783415575609 
! Gamma         0                0                0                0                
! Port Impedance         50               0                50               0                
12.84                          0.270141898153491 60.823678858387  0.961851865839842 150.944424696152 0.961851865839842 150.944424696152 0.270141898153491 60.8236788583871 
! Gamma         0                0                0                0                
! Port Impedance         50               0                50               0                
12.86                          0.273152779756679 60.4696102435439 0.961001688765904 150.588997092809 0.961001688765905 150.588997092809 0.27315277975668 60.4696102435439 
! Gamma         0                0                0                0                
! Port Impedance         50               0                50               0                
12.88                          0.276147836280953 60.1161405963306 0.960145890804613 150.234199553599 0.960145890804612 150.234199553599 0.276147836280953 60.1161405963306 
! Gamma         0                0                0                0                
! Port Impedance         50               0                50               0                
12.9                           0.279126979366705 59.7632746111772 0.959284630533204 149.880035609131 0.959284630533204 149.880035609131 0.279126979366705 59.7632746111772 
! Gamma         0                0                0                0                
! Port Impedance         50               0                50               0                
12.92                          0.282090123675157 59.4110167977626 0.958418066421231 149.52650866216  0.958418066421231 149.52650866216  0.282090123675156 59.4110167977626 
! Gamma         0                0                0                0                
! Port Impedance         50               0                50               0                
12.94                          0.28503718686613 59.0593714849032 0.957546356784525 149.173621988031 0.957546356784525 149.173621988031 0.28503718686613 59.0593714849031 
! Gamma         0                0                0                0                
! Port Impedance         50               0                50               0                
12.96                          0.287968089574812 58.7083428242351 0.956669659740059 148.82137873517  0.956669659740058 148.82137873517  0.287968089574812 58.7083428242352 
! Gamma         0                0                0                0                
! Port Impedance         50               0                50               0                
12.98                          0.290882755387519 58.35793479371   0.955788133161674 148.469781925611 0.955788133161674 148.469781925611 0.290882755387519 58.35793479371   
! Gamma         0                0                0                0                
! Port Impedance         50               0                50               0                
13                             0.293781110816528 58.0081512009179 0.954901934636723 148.11883445556  0.954901934636723 148.11883445556  0.293781110816527 58.0081512009179 
! Gamma         0                0                0                0                
! Port Impedance         50               0                50               0                
13.02                          0.296663085273978 57.6589956862583 0.954011221423611 147.768539095995 0.954011221423611 147.768539095995 0.296663085273978 57.6589956862583 
! Gamma         0                0                0                0                
! Port Impedance         50               0                50               0                
13.04                          0.299528611044905 57.3104717259687 0.953116150410267 147.418898493308 0.953116150410267 147.418898493308 0.299528611044905 57.3104717259687 
! Gamma         0                0                0                0                
! Port Impedance         50               0                50               0                
13.06                          0.302377623259421 56.9625826350279 0.952216878073548 147.06991516997  0.952216878073548 147.06991516997  0.302377623259421 56.9625826350279 
! Gamma         0                0                0                0                
! Port Impedance         50               0                50               0                
13.08                          0.305210059864092 56.6153315699413 0.951313560439569 146.721591525238 0.951313560439569 146.721591525238 0.305210059864091 56.6153315699413 
! Gamma         0                0                0                0                
! Port Impedance         50               0                50               0                
13.1                           0.308025861592537 56.2687215314216 0.950406353044991 146.373929835891 0.95040635304499 146.373929835891 0.308025861592537 56.2687215314216 
! Gamma         0                0                0                0                
! Port Impedance         50               0                50               0                
13.12                          0.310824971935289 55.9227553669739 0.949495410899254 146.026932256998 0.949495410899254 146.026932256998 0.310824971935289 55.9227553669739 
! Gamma         0                0                0                0                
! Port Impedance         50               0                50               0                
13.14                          0.313607337108949 55.5774357733926 0.948580888447773 145.680600822715 0.948580888447772 145.680600822715 0.313607337108949 55.5774357733926 
! Gamma         0                0                0                0                
! Port Impedance         50               0                50               0                
13.16                          0.316372906024666 55.2327652991786 0.947662939536082 145.334937447112 0.947662939536082 145.334937447112 0.316372906024667 55.2327652991786 
! Gamma         0                0                0                0                
! Port Impedance         50               0                50               0                
13.18                          0.319121630255991 54.8887463468839 0.946741717374954 144.989943925029 0.946741717374954 144.989943925029 0.319121630255991 54.8887463468839 
! Gamma         0                0                0                0                
! Port Impedance         50               0                50               0                
13.2                           0.321853464006107 54.5453811753902 0.945817374506483 144.645621932955 0.945817374506484 144.645621932955 0.321853464006107 54.5453811753902 
! Gamma         0                0                0                0                
! Port Impedance         50               0                50               0                
13.22                          0.324568364074512 54.2026719021253 0.944890062771128 144.301973029937 0.944890062771128 144.301973029937 0.324568364074512 54.2026719021253 
! Gamma         0                0                0                0                
! Port Impedance         50               0                50               0                
13.24                          0.327266289823145 53.8606205052256 0.943959933275723 143.958998658514 0.943959933275723 143.958998658514 0.327266289823145 53.8606205052256 
! Gamma         0                0                0                0                
! Port Impedance         50               0                50               0                
13.26                          0.329947203142019 53.5192288256463 0.943027136362471 143.616700145669 0.943027136362471 143.616700145669 0.329947203142019 53.5192288256462 
! Gamma         0                0                0                0                
! Port Impedance         50               0                50               0                
13.28                          0.332611068414377 53.1784985692254 0.942091821578869 143.275078703812 0.94209182157887 143.275078703812 0.332611068414377 53.1784985692254 
! Gamma         0                0                0                0                
! Port Impedance         50               0                50               0                
13.3                           0.335257852481404 52.8384313087054 0.941154137648635 142.934135431777 0.941154137648635 142.934135431777 0.335257852481404 52.8384313087054 
! Gamma         0                0                0                0                
! Port Impedance         50               0                50               0                
13.32                          0.33788752460654 52.4990284857137 0.940214232443558 142.593871315844 0.940214232443558 142.593871315844 0.337887524606541 52.4990284857136 
! Gamma         0                0                0                0                
! Port Impedance         50               0                50               0                
13.34                          0.3405000564394  52.1602914127084 0.939272252956329 142.254287230783 0.939272252956328 142.254287230783 0.340500056439399 52.1602914127084 
! Gamma         0                0                0                0                
! Port Impedance         50               0                50               0                
13.36                          0.343095421979353 51.8222212748899 0.938328345274311 141.915383940908 0.93832834527431 141.915383940908 0.343095421979353 51.8222212748899 
! Gamma         0                0                0                0                
! Port Impedance         50               0                50               0                
13.38                          0.345673597538788 51.4848191320806 0.937382654554255 141.577162101159 0.937382654554255 141.57716210116  0.345673597538787 51.4848191320806 
! Gamma         0                0                0                0                
! Port Impedance         50               0                50               0                
13.4                           0.348234561706074 51.1480859205771 0.936435324997961 141.239622258194 0.936435324997961 141.239622258194 0.348234561706074 51.1480859205771 
! Gamma         0                0                0                0                
! Port Impedance         50               0                50               0                
13.42                          0.35077829530828 50.8120224549738 0.935486499828866 140.902764851496 0.935486499828866 140.902764851496 0.35077829530828 50.8120224549739 
! Gamma         0                0                0                0                
! Port Impedance         50               0                50               0                
13.44                          0.35330478137364 50.4766294299639 0.934536321269559 140.566590214504 0.934536321269559 140.566590214504 0.35330478137364 50.4766294299639 
! Gamma         0                0                0                0                
! Port Impedance         50               0                50               0                
13.46                          0.355814005093835 50.1419074221143 0.933584930520216 140.231098575743 0.933584930520216 140.231098575743 0.355814005093835 50.1419074221143 
! Gamma         0                0                0                0                
! Port Impedance         50               0                50               0                
13.48                          0.358305953786075 49.8078568916206 0.932632467737943 139.896290059983 0.932632467737943 139.896290059983 0.358305953786076 49.8078568916205 
! Gamma         0                0                0                0                
! Port Impedance         50               0                50               0                
13.5                           0.360780616855052 49.4744781840402 0.931679072017017 139.562164689396 0.931679072017017 139.562164689397 0.360780616855052 49.4744781840402 
! Gamma         0                0                0                0                
! Port Impedance         50               0                50               0                
13.52                          0.363237985754745 49.141771532007  0.930724881370022 139.228722384736 0.930724881370022 139.228722384736 0.363237985754745 49.141771532007  
! Gamma         0                0                0                0                
! Port Impedance         50               0                50               0                
13.54                          0.365678053950137 48.8097370569266 0.929770032709861 138.895962966519 0.929770032709861 138.895962966519 0.365678053950137 48.8097370569266 
! Gamma         0                0                0                0                
! Port Impedance         50               0                50               0                
13.56                          0.368100816878855 48.4783747706546 0.928814661832645 138.563886156217 0.928814661832645 138.563886156217 0.368100816878855 48.4783747706546 
! Gamma         0                0                0                0                
! Port Impedance         50               0                50               0                
13.58                          0.370506271912751 48.1476845771574 0.92785890340143 138.232491577465 0.92785890340143 138.232491577465 0.370506271912751 48.1476845771575 
! Gamma         0                0                0                0                
! Port Impedance         50               0                50               0                
13.6                           0.37289441831946 47.8176662741581 0.926902890930815 137.901778757269 0.926902890930815 137.901778757268 0.37289441831946 47.8176662741582 
! Gamma         0                0                0                0                
! Port Impedance         50               0                50               0                
13.62                          0.375265257223946 47.488319554766  0.925946756772369 137.571747127218 0.925946756772369 137.571747127218 0.375265257223946 47.488319554766  
! Gamma         0                0                0                0                
! Port Impedance         50               0                50               0                
13.64                          0.377618791570065 47.1596440090911 0.924990632100882 137.242396024718 0.924990632100883 137.242396024718 0.377618791570065 47.1596440090911 
! Gamma         0                0                0                0                
! Port Impedance         50               0                50               0                
13.66                          0.379955026082169 46.8316391258447 0.924034646901431 136.913724694209 0.924034646901431 136.913724694209 0.379955026082169 46.8316391258447 
! Gamma         0                0                0                0                
! Port Impedance         50               0                50               0                
13.68                          0.382273967226755 46.5043042939259 0.92307892995724 136.585732288407 0.923078929957241 136.585732288407 0.382273967226755 46.504304293926  
! Gamma         0                0                0                0                
! Port Impedance         50               0                50               0                
13.7                           0.384575623174207 46.1776388039938 0.922123608838335 136.258417869536 0.922123608838335 136.258417869536 0.384575623174207 46.1776388039938 
! Gamma         0                0                0                0                
! Port Impedance         50               0                50               0                
13.72                          0.386860003760618 45.8516418500266 0.921168809890961 135.931780410569 0.921168809890961 135.931780410569 0.386860003760618 45.8516418500266 
! Gamma         0                0                0                0                
! Port Impedance         50               0                50               0                
13.74                          0.38912712044974 45.5263125308675 0.920214658227766 135.605818796471 0.920214658227766 135.605818796471 0.38912712044974 45.5263125308675 
! Gamma         0                0                0                0                
! Port Impedance         50               0                50               0                
13.76                          0.391376986295055 45.2016498517576 0.919261277718725 135.280531825442 0.919261277718725 135.280531825442 0.391376986295055 45.2016498517576 
! Gamma         0                0                0                0                
! Port Impedance         50               0                50               0                
13.78                          0.393609615902014 44.8776527258555 0.918308790982805 134.955918210164 0.918308790982805 134.955918210164 0.393609615902013 44.8776527258555 
! Gamma         0                0                0                0                
! Port Impedance         50               0                50               0                
13.8                           0.395825025390417 44.5543199757447 0.917357319380331 134.631976579043 0.917357319380331 134.631976579043 0.395825025390417 44.5543199757447 
! Gamma         0                0                0                0                
! Port Impedance         50               0                50               0                
13.82                          0.398023232357004 44.2316503349279 0.916406983006072 134.308705477457 0.916406983006072 134.308705477457 0.398023232357004 44.2316503349279 
! Gamma         0                0                0                0                
! Port Impedance         50               0                50               0                
13.84                          0.400204255838222 43.9096424493086 0.915457900683003 133.986103368999 0.915457900683003 133.986103368999 0.400204255838222 43.9096424493086 
! Gamma         0                0                0                0                
! Port Impedance         50               0                50               0                
13.86                          0.402368116273222 43.5882948786609 0.914510189956753 133.664168636718 0.914510189956753 133.664168636718 0.402368116273222 43.5882948786609 
! Gamma         0                0                0                0                
! Port Impedance         50               0                50               0                
13.88                          0.404514835467073 43.2676060980853 0.913563967090697 133.342899584363 0.913563967090697 133.342899584363 0.404514835467072 43.2676060980853 
! Gamma         0                0                0                0                
! Port Impedance         50               0                50               0                
13.9                           0.406644436554219 42.9475744994531 0.912619347061705 133.022294437618 0.912619347061705 133.022294437618 0.406644436554219 42.9475744994531 
! Gamma         0                0                0                0                
! Port Impedance         50               0                50               0                
13.92                          0.408756943962199 42.6281983928382 0.91167644355652 132.702351345335 0.911676443556521 132.702351345335 0.408756943962199 42.6281983928382 
! Gamma         0                0                0                0                
! Port Impedance         50               0                50               0                
13.94                          0.410852383375624 42.3094760079347 0.910735368968743 132.38306838077  0.910735368968743 132.38306838077  0.410852383375624 42.3094760079347 
! Gamma         0                0                0                0                
! Port Impedance         50               0                50               0                
13.96                          0.41293078170043 41.9914054954645 0.909796234396427 132.064443542804 0.909796234396427 132.064443542804 0.41293078170043 41.9914054954645 
! Gamma         0                0                0                0                
! Port Impedance         50               0                50               0                
13.98                          0.414992167028439 41.6739849285688 0.908859149640244 131.746474757168 0.908859149640244 131.746474757168 0.414992167028439 41.6739849285688 
! Gamma         0                0                0                0                
! Port Impedance         50               0                50               0                
14                             0.417036568602198 41.3572123041902 0.907924223202244 131.42915987766  0.907924223202244 131.42915987766  0.417036568602198 41.3572123041902 
! Gamma         0                0                0                0                
! Port Impedance         50               0                50               0                
14.02                          0.419064016780142 41.041085544439  0.90699156228514 131.112496687351 0.90699156228514 131.112496687351 0.419064016780143 41.041085544439  
! Gamma         0                0                0                0                
! Port Impedance         50               0                50               0                
14.04                          0.421074543002078 40.7256024979486 0.906061272792162 130.796482899794 0.906061272792162 130.796482899794 0.421074543002078 40.7256024979486 
! Gamma         0                0                0                0                
! Port Impedance         50               0                50               0                
14.06                          0.42306817975499 40.4107609412163 0.905133459327416 130.481116160223 0.905133459327416 130.481116160223 0.42306817975499 40.4107609412162 
! Gamma         0                0                0                0                
! Port Impedance         50               0                50               0                
14.08                          0.425044960539189 40.096558579932  0.904208225196762 130.166394046738 0.904208225196762 130.166394046738 0.425044960539189 40.096558579932  
! Gamma         0                0                0                0                
! Port Impedance         50               0                50               0                
14.1                           0.427004919834806 39.7829930502933 0.903285672409191 129.852314071496 0.903285672409192 129.852314071496 0.427004919834806 39.7829930502933 
! Gamma         0                0                0                0                
! Port Impedance         50               0                50               0                
14.12                          0.428948093068638 39.4700619203073 0.902365901678681 129.538873681878 0.90236590167868 129.538873681878 0.428948093068638 39.4700619203073 
! Gamma         0                0                0                0                
! Port Impedance         50               0                50               0                
14.14                          0.430874516581355 39.1577626910785 0.901449012426511 129.226070261668 0.901449012426511 129.226070261668 0.430874516581355 39.1577626910785 
! Gamma         0                0                0                0                
! Port Impedance         50               0                50               0                
14.16                          0.432784227595075 38.8460927980842 0.900535102784046 128.9139011322   0.900535102784046 128.9139011322   0.432784227595075 38.8460927980843 
! Gamma         0                0                0                0                
! Port Impedance         50               0                50               0                
14.18                          0.43467726418131 38.5350496124354 0.899624269595946 128.602363553518 0.899624269595946 128.602363553518 0.43467726418131 38.5350496124354 
! Gamma         0                0                0                0                
! Port Impedance         50               0                50               0                
14.2                           0.43655366522929 38.2246304421243 0.898716608423801 128.291454725511 0.8987166084238  128.291454725511 0.43655366522929 38.2246304421243 
! Gamma         0                0                0                0                
! Port Impedance         50               0                50               0                
14.22                          0.438413470414672 37.914832533258  0.897812213550179 127.981171789049 0.897812213550179 127.981171789049 0.438413470414672 37.914832533258  
! Gamma         0                0                0                0                
! Port Impedance         50               0                50               0                
14.24                          0.440256720168636 37.6056530712788 0.896911177983075 127.671511827103 0.896911177983074 127.671511827103 0.440256720168635 37.6056530712789 
! Gamma         0                0                0                0                
! Port Impedance         50               0                50               0                
14.26                          0.442083455647373 37.2970891821699 0.896013593460726 127.362471865855 0.896013593460726 127.362471865855 0.442083455647373 37.2970891821699 
! Gamma         0                0                0                0                
! Port Impedance         50               0                50               0                
14.28                          0.443893718701972 36.9891379336472 0.895119550456815 127.054048875806 0.895119550456815 127.054048875806 0.443893718701972 36.9891379336472 
! Gamma         0                0                0                0                
! Port Impedance         50               0                50               0                
14.3                           0.445687551848702 36.6817963363377 0.894229138186015 126.746239772859 0.894229138186015 126.746239772858 0.445687551848702 36.6817963363377 
! Gamma         0                0                0                0                
! Port Impedance         50               0                50               0                
14.32                          0.447464998239702 36.3750613449427 0.893342444609882 126.439041419406 0.893342444609882 126.439041419406 0.447464998239702 36.3750613449426 
! Gamma         0                0                0                0                
! Port Impedance         50               0                50               0                
14.34                          0.449226101634068 36.0689298593879 0.892459556443072 126.132450625398 0.892459556443072 126.132450625398 0.449226101634068 36.0689298593879 
! Gamma         0                0                0                0                
! Port Impedance         50               0                50               0                
14.36                          0.450970906369357 35.7633987259584 0.891580559159882 125.826464149397 0.891580559159882 125.826464149397 0.450970906369357 35.7633987259584 
! Gamma         0                0                0                0                
! Port Impedance         50               0                50               0                
14.38                          0.452699457333495 35.4584647384201 0.890705537001084 125.52107869963  0.890705537001084 125.52107869963  0.452699457333495 35.4584647384201 
! Gamma         0                0                0                0                
! Port Impedance         50               0                50               0                
14.4                           0.454411799937095 35.154124639126  0.889834572981057 125.216290935022 0.889834572981057 125.216290935022 0.454411799937096 35.154124639126  
! Gamma         0                0                0                0                
! Port Impedance         50               0                50               0                
14.42                          0.456107980086191 34.8503751201087 0.88896774889519 124.912097466218 0.88896774889519 124.912097466218 0.456107980086191 34.8503751201087 
! Gamma         0                0                0                0                
! Port Impedance         50               0                50               0                
14.44                          0.457788044155379 34.5472128241584 0.888105145327563 124.608494856599 0.888105145327563 124.608494856599 0.457788044155379 34.5472128241584 
! Gamma         0                0                0                0                
! Port Impedance         50               0                50               0                
14.46                          0.459452038961381 34.2446343458862 0.887246841658863 124.30547962328  0.887246841658863 124.30547962328  0.459452038961381 34.2446343458862 
! Gamma         0                0                0                0                
! Port Impedance         50               0                50               0                
14.48                          0.461100011737013 33.9426362327733 0.886392916074562 124.0030482381   0.886392916074562 124.0030482381   0.461100011737013 33.9426362327733 
! Gamma         0                0                0                0                
! Port Impedance         50               0                50               0                
14.5                           0.462732010105569 33.6412149862057 0.885543445573312 123.701197128593 0.885543445573312 123.701197128593 0.462732010105569 33.6412149862057 
! Gamma         0                0                0                0                
! Port Impedance         50               0                50               0                
14.52                          0.464348082055627 33.3403670624937 0.884698505975565 123.399922678958 0.884698505975565 123.399922678958 0.464348082055627 33.3403670624937 
! Gamma         0                0                0                0                
! Port Impedance         50               0                50               0                
14.54                          0.465948275916256 33.0400888738781 0.883858171932399 123.099221231006 0.883858171932399 123.099221231006 0.465948275916256 33.0400888738781 
! Gamma         0                0                0                0                
! Port Impedance         50               0                50               0                
14.56                          0.46753264033264 32.7403767895209 0.883022516934538 122.799089085101 0.883022516934538 122.799089085101 0.46753264033264 32.7403767895209 
! Gamma         0                0                0                0                
! Port Impedance         50               0                50               0                
14.58                          0.469101224242119 32.441227136482  0.88219161332157 122.499522501084 0.882191613321569 122.499522501084 0.469101224242119 32.441227136482  
! Gamma         0                0                0                0                
! Port Impedance         50               0                50               0                
14.6                           0.470654076850626 32.1426362006815 0.881365532291321 122.200517699186 0.881365532291321 122.200517699186 0.470654076850626 32.1426362006815 
! Gamma         0                0                0                0                
! Port Impedance         50               0                50               0                
14.62                          0.472191247609545 31.8446002278475 0.880544343909418 121.902070860934 0.880544343909417 121.902070860934 0.472191247609545 31.8446002278475 
! Gamma         0                0                0                0                
! Port Impedance         50               0                50               0                
14.64                          0.473712786192972 31.5471154244486 0.879728117118982 121.60417813003  0.879728117118982 121.60417813003  0.473712786192972 31.5471154244486 
! Gamma         0                0                0                0                
! Port Impedance         50               0                50               0                
14.66                          0.475218742475374 31.2501779586142 0.878916919750493 121.306835613236 0.878916919750493 121.306835613236 0.475218742475374 31.2501779586142 
! Gamma         0                0                0                0                
! Port Impedance         50               0                50               0                
14.68                          0.476709166509657 30.9537839610376 0.878110818531765 121.010039381229 0.878110818531765 121.010039381229 0.476709166509657 30.9537839610376 
! Gamma         0                0                0                0                
! Port Impedance         50               0                50               0                
14.7                           0.478184108505634 30.6579295258673 0.877309879098068 120.713785469452 0.877309879098068 120.713785469452 0.478184108505634 30.6579295258673 
! Gamma         0                0                0                0                
! Port Impedance         50               0                50               0                
14.72                          0.479643618808886 30.3626107115821 0.876514166002354 120.418069878955 0.876514166002354 120.418069878955 0.479643618808885 30.3626107115821 
! Gamma         0                0                0                0                
! Port Impedance         50               0                50               0                
14.74                          0.481087747880018 30.0678235418536 0.8757237427256  120.122888577213 0.875723742725599 120.122888577213 0.481087747880018 30.0678235418536 
! Gamma         0                0                0                0                
! Port Impedance         50               0                50               0                
14.76                          0.482516546274313 29.7735640063934 0.87493867168724 119.82823749894  0.87493867168724 119.82823749894  0.482516546274313 29.7735640063934 
! Gamma         0                0                0                0                
! Port Impedance         50               0                50               0                
14.78                          0.483930064621766 29.4798280617864 0.874159014255701 119.534112546885 0.874159014255701 119.534112546885 0.483930064621766 29.4798280617864 
! Gamma         0                0                0                0                
! Port Impedance         50               0                50               0                
14.8                           0.485328353607508 29.1866116323107 0.873384830759008 119.240509592621 0.873384830759008 119.240509592621 0.485328353607508 29.1866116323107 
! Gamma         0                0                0                0                
! Port Impedance         50               0                50               0                
14.82                          0.486711463952615 28.8939106107425 0.872616180495474 118.947424477314 0.872616180495474 118.947424477314 0.486711463952615 28.8939106107424 
! Gamma         0                0                0                0                
! Port Impedance         50               0                50               0                
14.84                          0.488079446395287 28.6017208591481 0.871853121744445 118.654853012482 0.871853121744445 118.654853012482 0.488079446395287 28.6017208591481 
! Gamma         0                0                0                0                
! Port Impedance         50               0                50               0                
14.86                          0.489432351672413 28.3100382096615 0.871095711777119 118.362790980746 0.871095711777119 118.362790980746 0.489432351672413 28.3100382096615 
! Gamma         0                0                0                0                
! Port Impedance         50               0                50               0                
14.88                          0.490770230501496 28.0188584652484 0.870344006867401 118.071234136557 0.8703440068674  118.071234136557 0.490770230501496 28.0188584652484 
! Gamma         0                0                0                0                
! Port Impedance         50               0                50               0                
14.9                           0.492093133562958 27.7281774004563 0.869598062302805 117.780178206926 0.869598062302805 117.780178206926 0.492093133562958 27.7281774004563 
! Gamma         0                0                0                0                
! Port Impedance         50               0                50               0                
14.92                          0.493401111482795 27.437990762152  0.868857932395404 117.489618892127 0.868857932395404 117.489618892127 0.493401111482796 27.4379907621519 
! Gamma         0                0                0                0                
! Port Impedance         50               0                50               0                
14.94                          0.494694214815608 27.1482942702439 0.868123670492791 117.199551866393 0.868123670492792 117.199551866393 0.494694214815608 27.1482942702439 
! Gamma         0                0                0                0                
! Port Impedance         50               0                50               0                
14.96                          0.495972494027973 26.8590836183931 0.86739532898908 116.909972778604 0.86739532898908 116.909972778604 0.495972494027973 26.859083618393  
! Gamma         0                0                0                0                
! Port Impedance         50               0                50               0                
14.98                          0.497235999482174 26.570354474709  0.866672959335908 116.620877252954 0.866672959335908 116.620877252954 0.497235999482173 26.570354474709  
! Gamma         0                0                0                0                
! Port Impedance         50               0                50               0                
15                             0.498484781420279 26.2821024824335 0.865956612053461 116.332260889611 0.865956612053461 116.332260889611 0.498484781420278 26.2821024824336 
! Gamma         0                0                0                0                
! Port Impedance         50               0                50               0                
15.02                          0.499718889948561 25.9943232606114 0.865246336741491 116.044119265366 0.865246336741491 116.044119265366 0.499718889948561 25.9943232606114 
! Gamma         0                0                0                0                
! Port Impedance         50               0                50               0                
15.04                          0.500938375022257 25.7070124047475 0.864542182090344 115.756447934264 0.864542182090344 115.756447934264 0.500938375022257 25.7070124047475 
! Gamma         0                0                0                0                
! Port Impedance         50               0                50               0                
15.06                          0.502143286430658 25.4201654874518 0.863844195891966 115.469242428229 0.863844195891966 115.469242428229 0.502143286430658 25.4201654874518 
! Gamma         0                0                0                0                
! Port Impedance         50               0                50               0                
15.08                          0.503333673782536 25.133778059071  0.863152425050904 115.182498257671 0.863152425050904 115.182498257671 0.503333673782535 25.133778059071  
! Gamma         0                0                0                0                
! Port Impedance         50               0                50               0                
15.1                           0.504509586491887 24.8478456483081 0.862466915595288 114.896210912088 0.862466915595288 114.896210912088 0.504509586491887 24.8478456483081 
! Gamma         0                0                0                0                
! Port Impedance         50               0                50               0                
15.12                          0.505671073764007 24.5623637628293 0.861787712687785 114.610375860651 0.861787712687785 114.610375860651 0.505671073764008 24.5623637628293 
! Gamma         0                0                0                0                
! Port Impedance         50               0                50               0                
15.14                          0.506818184581874 24.2773278898581 0.861114860636522 114.324988552776 0.861114860636522 114.324988552776 0.506818184581875 24.2773278898581 
! Gamma         0                0                0                0                
! Port Impedance         50               0                50               0                
15.16                          0.507950967692845 23.9927334967581 0.860448402905981 114.040044418694 0.860448402905981 114.040044418694 0.507950967692844 23.9927334967581 
! Gamma         0                0                0                0                
! Port Impedance         50               0                50               0                
15.18                          0.509069471595659 23.7085760316027 0.859788382127851 113.755538869993 0.859788382127851 113.755538869993 0.509069471595658 23.7085760316027 
! Gamma         0                0                0                0                
! Port Impedance         50               0                50               0                
15.2                           0.510173744527749 23.4248509237335 0.859134840111835 113.471467300166 0.859134840111835 113.471467300166 0.510173744527749 23.4248509237335 
! Gamma         0                0                0                0                
! Port Impedance         50               0                50               0                
15.22                          0.511263834452845 23.1415535843069 0.85848781785641 113.187825085137 0.858487817856409 113.187825085137 0.511263834452845 23.1415535843069 
! Gamma         0                0                0                0                
! Port Impedance         50               0                50               0                
15.24                          0.512339789048868 22.8586794068278 0.857847355559533 112.904607583777 0.857847355559532 112.904607583777 0.512339789048869 22.8586794068278 
! Gamma         0                0                0                0                
! Port Impedance         50               0                50               0                
15.26                          0.513401655696124 22.5762237676737 0.857213492629297 112.621810138413 0.857213492629298 112.621810138413 0.513401655696124 22.5762237676737 
! Gamma         0                0                0                0                
! Port Impedance         50               0                50               0                
15.28                          0.514449481465768 22.2941820266056 0.856586267694517 112.339428075321 0.856586267694517 112.339428075321 0.514449481465768 22.2941820266056 
! Gamma         0                0                0                0                
! Port Impedance         50               0                50               0                
15.3                           0.51548331310856 22.0125495272684 0.855965718615255 112.057456705214 0.855965718615255 112.057456705214 0.515483313108559 22.0125495272684 
! Gamma         0                0                0                0                
! Port Impedance         50               0                50               0                
15.32                          0.516503197043883 21.7313215976801 0.855351882493278 111.775891323712 0.855351882493278 111.775891323712 0.516503197043883 21.7313215976801 
! Gamma         0                0                0                0                
! Port Impedance         50               0                50               0                
15.34                          0.517509179349046 21.4504935507098 0.854744795682446 111.494727211809 0.854744795682446 111.494727211809 0.517509179349046 21.4504935507098 
! Gamma         0                0                0                0                
! Port Impedance         50               0                50               0                
15.36                          0.518501305748836 21.170060684545  0.854144493799018 111.213959636323 0.854144493799018 111.213959636323 0.518501305748836 21.170060684545  
! Gamma         0                0                0                0                
! Port Impedance         50               0                50               0                
15.38                          0.519479621605344 20.8900182831476 0.853551011731888 110.933583850339 0.853551011731888 110.933583850339 0.519479621605345 20.8900182831476 
! Gamma         0                0                0                0                
! Port Impedance         50               0                50               0                
15.4                           0.520444171908041 20.6103616167005 0.85296438365273 110.653595093642 0.852964383652731 110.653595093642 0.520444171908041 20.6103616167005 
! Gamma         0                0                0                0                
! Port Impedance         50               0                50               0                
15.42                          0.521395001264102 20.331085942042  0.852384643026068 110.373988593141 0.852384643026068 110.373988593141 0.521395001264102 20.331085942042  
! Gamma         0                0                0                0                
! Port Impedance         50               0                50               0                
15.44                          0.522332153888991 20.0521865030917 0.851811822619249 110.094759563275 0.851811822619249 110.094759563275 0.522332153888991 20.0521865030917 
! Gamma         0                0                0                0                
! Port Impedance         50               0                50               0                
15.46                          0.52325567359727 19.7736585312648 0.851245954512333 109.815903206422 0.851245954512333 109.815903206422 0.52325567359727 19.7736585312648 
! Gamma         0                0                0                0                
! Port Impedance         50               0                50               0                
15.48                          0.52416560379366 19.495497245877  0.850687070107885 109.53741471329  0.850687070107885 109.53741471329  0.52416560379366 19.495497245877  
! Gamma         0                0                0                0                
! Port Impedance         50               0                50               0                
15.5                           0.525061987464332 19.2176978545398 0.850135200140675 109.259289263297 0.850135200140675 109.259289263297 0.525061987464332 19.2176978545398 
! Gamma         0                0                0                0                
! Port Impedance         50               0                50               0                
15.52                          0.52594486716842 18.9402555535456 0.849590374687275 108.981522024948 0.849590374687275 108.981522024948 0.52594486716842 18.9402555535456 
! Gamma         0                0                0                0                
! Port Impedance         50               0                50               0                
15.54                          0.526814285029773 18.6631655282429 0.849052623175558 108.704108156197 0.849052623175558 108.704108156197 0.526814285029773 18.6631655282429 
! Gamma         0                0                0                0                
! Port Impedance         50               0                50               0                
15.56                          0.527670282728913 18.386422953403  0.848521974394098 108.427042804805 0.848521974394098 108.427042804805 0.527670282728913 18.386422953403  
! Gamma         0                0                0                0                
! Port Impedance         50               0                50               0                
15.58                          0.528512901495216 18.1100229935767 0.847998456501459 108.150321108682 0.847998456501459 108.150321108682 0.528512901495216 18.1100229935767 
! Gamma         0                0                0                0                
! Port Impedance         50               0                50               0                
15.6                           0.529342182099311 17.8339608034421 0.847482097035375 107.873938196231 0.847482097035375 107.873938196231 0.529342182099311 17.8339608034421 
! Gamma         0                0                0                0                
! Port Impedance         50               0                50               0                
15.62                          0.53015816484567 17.5582315281431 0.846972922921832 107.597889186668 0.846972922921832 107.597889186668 0.530158164845669 17.5582315281431 
! Gamma         0                0                0                0                
! Port Impedance         50               0                50               0                
15.64                          0.530960889565418 17.28283030362   0.846470960484031 107.322169190349 0.846470960484031 107.322169190349 0.530960889565418 17.28283030362   
! Gamma         0                0                0                0                
! Port Impedance         50               0                50               0                
15.66                          0.531750395609335 17.0077522569294 0.845976235451232 107.046773309078 0.845976235451232 107.046773309078 0.531750395609335 17.0077522569294 
! Gamma         0                0                0                0                
! Port Impedance         50               0                50               0                
15.68                          0.532526721841052 16.7329925065586 0.845488772967503 106.771696636412 0.845488772967503 106.771696636412 0.532526721841052 16.7329925065586 
! Gamma         0                0                0                0                
! Port Impedance         50               0                50               0                
15.7                           0.533289906630444 16.4585461627279 0.845008597600331 106.496934257954 0.845008597600331 106.496934257954 0.533289906630444 16.4585461627279 
! Gamma         0                0                0                0                
! Port Impedance         50               0                50               0                
15.72                          0.534039987847201 16.1844083276882 0.84453573334913 106.222481251642 0.84453573334913 106.222481251642 0.534039987847201 16.1844083276882 
! Gamma         0                0                0                0                
! Port Impedance         50               0                50               0                
15.74                          0.534777002854594 15.9105740960079 0.844070203653625 105.948332688027 0.844070203653625 105.948332688027 0.534777002854595 15.9105740960079 
! Gamma         0                0                0                0                
! Port Impedance         50               0                50               0                
15.76                          0.535500988503412 15.6370385548529 0.843612031402119 105.674483630542 0.84361203140212 105.674483630542 0.535500988503412 15.6370385548529 
! Gamma         0                0                0                0                
! Port Impedance         50               0                50               0                
15.78                          0.536211981126075 15.3637967842591 0.843161238939631 105.400929135771 0.843161238939631 105.400929135771 0.536211981126075 15.3637967842591 
! Gamma         0                0                0                0                
! Port Impedance         50               0                50               0                
15.8                           0.536910016530924 15.0908438573962 0.842717848075916 105.127664253702 0.842717848075916 105.127664253702 0.536910016530924 15.0908438573962 
! Gamma         0                0                0                0                
! Port Impedance         50               0                50               0                
15.82                          0.537595129996675 14.8181748408249 0.842281880093365 104.854684027973 0.842281880093365 104.854684027973 0.537595129996675 14.8181748408249 
! Gamma         0                0                0                0                
! Port Impedance         50               0                50               0                
15.84                          0.53826735626704 14.5457847947463 0.84185335575477 104.58198349612  0.841853355754771 104.58198349612  0.53826735626704 14.5457847947463 
! Gamma         0                0                0                0                
! Port Impedance         50               0                50               0                
15.86                          0.538926729545506 14.273668773244  0.841432295310972 104.309557689806 0.841432295310972 104.309557689806 0.538926729545506 14.273668773244  
! Gamma         0                0                0                0                
! Port Impedance         50               0                50               0                
15.88                          0.539573283490273 14.0018218245194 0.841018718508376 104.03740163505  0.841018718508376 104.03740163505  0.539573283490273 14.0018218245194 
! Gamma         0                0                0                0                
! Port Impedance         50               0                50               0                
15.9                           0.54020705120935 13.7302389911197 0.84061264459634 103.765510352451 0.840612644596339 103.765510352451 0.540207051209351 13.7302389911197 
! Gamma         0                0                0                0                
! Port Impedance         50               0                50               0                
15.92                          0.540828065255793 13.4589153101592 0.840214092334433 103.493878857398 0.840214092334433 103.493878857398 0.540828065255793 13.4589153101592 
! Gamma         0                0                0                0                
! Port Impedance         50               0                50               0                
15.94                          0.541436357623097 13.1878458135343 0.83982307999957 103.222502160278 0.83982307999957 103.222502160278 0.541436357623097 13.1878458135343 
! Gamma         0                0                0                0                
! Port Impedance         50               0                50               0                
15.96                          0.542031959740729 12.9170255281315 0.839439625393006 102.951375266681 0.839439625393006 102.951375266681 0.54203195974073 12.9170255281315 
! Gamma         0                0                0                0                
! Port Impedance         50               0                50               0                
15.98                          0.542614902469806 12.6464494760291 0.839063745847204 102.68049317759  0.839063745847204 102.68049317759  0.542614902469806 12.6464494760291 
! Gamma         0                0                0                0                
! Port Impedance         50               0                50               0                
16                             0.543185216098902 12.3761126746925 0.838695458232577 102.409850889573 0.838695458232577 102.409850889573 0.543185216098902 12.3761126746925 
! Gamma         0                0                0                0                
! Port Impedance         50               0                50               0                
16.02                          0.543742930339997 12.1060101371644 0.838334778964082 102.139443394966 0.838334778964082 102.139443394966 0.543742930339998 12.1060101371644 
! Gamma         0                0                0                0                
! Port Impedance         50               0                50               0                
16.04                          0.544288074324557 11.8361368722475 0.837981724007698 101.869265682048 0.837981724007698 101.869265682048 0.544288074324557 11.8361368722475 
! Gamma         0                0                0                0                
! Port Impedance         50               0                50               0                
16.06                          0.544820676599736 11.5664878846825 0.837636308886758 101.599312735214 0.837636308886758 101.599312735214 0.544820676599737 11.5664878846825 
! Gamma         0                0                0                0                
! Port Impedance         50               0                50               0                
16.08                          0.545340765124711 11.2970581753201 0.837298548688154 101.32957953514  0.837298548688154 101.32957953514  0.545340765124711 11.2970581753201 
! Gamma         0                0                0                0                
! Port Impedance         50               0                50               0                
16.1                           0.545848367267136 11.0278427412874 0.8369684580684  101.060061058944 0.836968458068399 101.060061058944 0.545848367267136 11.0278427412874 
! Gamma         0                0                0                0                
! Port Impedance         50               0                50               0                
16.12                          0.546343509799716 10.7588365761486 0.836646051259568 100.79075228034  0.836646051259568 100.79075228034  0.546343509799716 10.7588365761486 
! Gamma         0                0                0                0                
! Port Impedance         50               0                50               0                
16.14                          0.546826218896897 10.4900346700612 0.836331342075084 100.521648169788 0.836331342075084 100.521648169788 0.546826218896898 10.4900346700612 
! Gamma         0                0                0                0                
! Port Impedance         50               0                50               0                
16.16                          0.547296520131678 10.2214320099263 0.836024343915387 100.252743694642 0.836024343915386 100.252743694642 0.547296520131678 10.2214320099263 
! Gamma         0                0                0                0                
! Port Impedance         50               0                50               0                
16.18                          0.54775443847252 9.95302357953438 0.835725069773455 99.9840338192847 0.835725069773455 99.9840338192847 0.54775443847252 9.95302357953438 
! Gamma         0                0                0                0                
! Port Impedance         50               0                50               0                
16.2                           0.548199998280381 9.68480435970574 0.835433532240193 99.7155135052652 0.835433532240193 99.7155135052652 0.548199998280381 9.68480435970574 
! Gamma         0                0                0                0                
! Port Impedance         50               0                50               0                
16.22                          0.548633223305848 9.4167693284269  0.835149743509682 99.4471777114302 0.835149743509682 99.4471777114302 0.548633223305848 9.4167693284269  
! Gamma         0                0                0                0                
! Port Impedance         50               0                50               0                
16.24                          0.549054136686374 9.14891346098179 0.834873715384294 99.1790213940492 0.834873715384294 99.1790213940492 0.549054136686374 9.14891346098179 
! Gamma         0                0                0                0                
! Port Impedance         50               0                50               0                
16.26                          0.549462760943621 8.88123173007856 0.834605459279672 98.9110395069356 0.834605459279672 98.9110395069356 0.54946276094362 8.88123173007857 
! Gamma         0                0                0                0                
! Port Impedance         50               0                50               0                
16.28                          0.549859117980901 8.61371910597226 0.834344986229562 98.6432270015646 0.834344986229562 98.6432270015646 0.549859117980901 8.61371910597226 
! Gamma         0                0                0                0                
! Port Impedance         50               0                50               0                
16.3                           0.550243229080715 8.34637055658363 0.834092306890519 98.3755788271864 0.834092306890519 98.3755788271864 0.550243229080716 8.34637055658363 
! Gamma         0                0                0                0                
! Port Impedance         50               0                50               0                
16.32                          0.550615114902387 8.07918104761259 0.833847431546472 98.1080899309349 0.833847431546472 98.1080899309349 0.550615114902387 8.07918104761259 
! Gamma         0                0                0                0                
! Port Impedance         50               0                50               0                
16.34                          0.550974795479788 7.81214554264955 0.833610370113143 97.8407552579338 0.833610370113143 97.8407552579338 0.550974795479789 7.81214554264955 
! Gamma         0                0                0                0                
! Port Impedance         50               0                50               0                
16.36                          0.551322290219166 7.54525900328111 0.833381132142342 97.573569751397  0.833381132142341 97.573569751397  0.551322290219166 7.54525900328111 
! Gamma         0                0                0                0                
! Port Impedance         50               0                50               0                
16.38                          0.551657617897042 7.27851638919361 0.833159726826108 97.3065283527276 0.833159726826108 97.3065283527276 0.551657617897042 7.27851638919361 
! Gamma         0                0                0                0                
! Port Impedance         50               0                50               0                
16.4                           0.551980796658215 7.01191265827202 0.832946163000727 97.0396260016118 0.832946163000727 97.0396260016118 0.551980796658215 7.01191265827202 
! Gamma         0                0                0                0                
! Port Impedance         50               0                50               0                
16.42                          0.552291844013844 6.74544276669603 0.832740449150597 96.7728576361099 0.832740449150597 96.7728576361099 0.552291844013844 6.74544276669603 
! Gamma         0                0                0                0                
! Port Impedance         50               0                50               0                
16.44                          0.55259077683961 6.47910166903261 0.832542593411967 96.5062181927444 0.832542593411967 96.5062181927444 0.55259077683961 6.47910166903261 
! Gamma         0                0                0                0                
! Port Impedance         50               0                50               0                
16.46                          0.552877611373972 6.21288431832535 0.832352603576529 96.2397026065841 0.832352603576529 96.2397026065841 0.552877611373972 6.21288431832535 
! Gamma         0                0                0                0                
! Port Impedance         50               0                50               0                
16.48                          0.553152363216488 5.9467856661809  0.832170487094874 95.9733058113267 0.832170487094874 95.9733058113267 0.553152363216488 5.9467856661809  
! Gamma         0                0                0                0                
! Port Impedance         50               0                50               0                
16.5                           0.553415047326235 5.68080066285232 0.83199625107981 95.7070227393763 0.83199625107981 95.7070227393763 0.553415047326235 5.68080066285232 
! Gamma         0                0                0                0                
! Port Impedance         50               0                50               0                
16.52                          0.553665678020285 5.41492425731974 0.831829902309543 95.4408483219206 0.831829902309543 95.4408483219206 0.553665678020285 5.41492425731974 
! Gamma         0                0                0                0                
! Port Impedance         50               0                50               0                
16.54                          0.553904268972279 5.14915139736845 0.831671447230712 95.1747774890036 0.831671447230712 95.1747774890036 0.553904268972279 5.14915139736844 
! Gamma         0                0                0                0                
! Port Impedance         50               0                50               0                
16.56                          0.554130833211054 4.88347702966396 0.831520891961292 94.9088051695965 0.831520891961292 94.9088051695965 0.554130833211054 4.88347702966396 
! Gamma         0                0                0                0                
! Port Impedance         50               0                50               0                
16.58                          0.554345383119364 4.61789609982539 0.831378242293359 94.6429262916665 0.831378242293359 94.6429262916665 0.554345383119364 4.61789609982539 
! Gamma         0                0                0                0                
! Port Impedance         50               0                50               0                
16.6                           0.55454793043266 4.35240355249581 0.83124350369571 94.3771357822423 0.83124350369571 94.3771357822423 0.55454793043266 4.35240355249581 
! Gamma         0                0                0                0                
! Port Impedance         50               0                50               0                
16.62                          0.554738486237946 4.08699433141095 0.831116681316351 94.1114285674791 0.831116681316351 94.1114285674791 0.554738486237946 4.08699433141095 
! Gamma         0                0                0                0                
! Port Impedance         50               0                50               0                
16.64                          0.554917060972707 3.82166337946542 0.830997779984837 93.8457995727197 0.830997779984837 93.8457995727197 0.554917060972707 3.82166337946542 
! Gamma         0                0                0                0                
! Port Impedance         50               0                50               0                
16.66                          0.555083664423897 3.55640563877728 0.830886804214487 93.5802437225548 0.830886804214487 93.5802437225548 0.555083664423898 3.55640563877728 
! Gamma         0                0                0                0                
! Port Impedance         50               0                50               0                
16.68                          0.555238305727013 3.29121605075091 0.830783758204444 93.3147559408819 0.830783758204444 93.3147559408819 0.555238305727012 3.29121605075091 
! Gamma         0                0                0                0                
! Port Impedance         50               0                50               0                
16.7                           0.555380993365211 3.02608955613739 0.83068864584161 93.0493311509606 0.83068864584161 93.0493311509606 0.555380993365211 3.02608955613739 
! Gamma         0                0                0                0                
! Port Impedance         50               0                50               0                
16.72                          0.555511735168513 2.76102109509474 0.830601470702436 92.783964275469  0.830601470702435 92.783964275469  0.555511735168513 2.76102109509474 
! Gamma         0                0                0                0                
! Port Impedance         50               0                50               0                
16.74                          0.555630538313067 2.49600560724494 0.830522236054571 92.5186502365562 0.83052223605457 92.5186502365562 0.555630538313067 2.49600560724494 
! Gamma         0                0                0                0                
! Port Impedance         50               0                50               0                
16.76                          0.555737409320466 2.23103803173119 0.830450944858377 92.2533839558953 0.830450944858377 92.2533839558953 0.555737409320466 2.23103803173119 
! Gamma         0                0                0                0                
! Port Impedance         50               0                50               0                
16.78                          0.555832354057149 1.96611330727293 0.830387599768305 91.9881603547339 0.830387599768304 91.9881603547339 0.555832354057149 1.96611330727293 
! Gamma         0                0                0                0                
! Port Impedance         50               0                50               0                
16.8                           0.555915377733847 1.70122637222024 0.830332203134126 91.7229743539443 0.830332203134126 91.7229743539443 0.555915377733847 1.70122637222024 
! Gamma         0                0                0                0                
! Port Impedance         50               0                50               0                
16.82                          0.555986484905101 1.43637216460726 0.830284757002034 91.4578208740725 0.830284757002034 91.4578208740725 0.555986484905101 1.43637216460726 
! Gamma         0                0                0                0                
! Port Impedance         50               0                50               0                
16.84                          0.556045679468847 1.17154562220417 0.830245263115599 91.1926948353863 0.830245263115599 91.1926948353863 0.556045679468847 1.17154562220417 
! Gamma         0                0                0                0                
! Port Impedance         50               0                50               0                
16.86                          0.556092964666047 0.906741682569533 0.830213722916589 90.9275911579224 0.830213722916589 90.9275911579224 0.556092964666047 0.906741682569533 
! Gamma         0                0                0                0                
! Port Impedance         50               0                50               0                
16.88                          0.556128343080401 0.641955283100698 0.830190137545651 90.6625047615335 0.830190137545651 90.6625047615335 0.556128343080401 0.641955283100698 
! Gamma         0                0                0                0                
! Port Impedance         50               0                50               0                
16.9                           0.556151816638109 0.377181361084914 0.83017450784285 90.3974305659344 0.83017450784285 90.3974305659344 0.556151816638109 0.377181361084914 
! Gamma         0                0                0                0                
! Port Impedance         50               0                50               0                
16.92                          0.556163386607688 0.112414853749238 0.830166834348081 90.1323634907478 0.830166834348081 90.1323634907478 0.556163386607688 0.112414853749238 
! Gamma         0                0                0                0                
! Port Impedance         50               0                50               0                
16.94                          0.556163053599871 -0.152349301689721 0.830167117301322 89.8672984555496 0.830167117301322 89.8672984555496 0.556163053599871 -0.152349301689721 
! Gamma         0                0                0                0                
! Port Impedance         50               0                50               0                
16.96                          0.556150817567544 -0.417116167975445 0.830175356642771 89.6022303799151 0.830175356642771 89.6022303799151 0.556150817567544 -0.417116167975445 
! Gamma         0                0                0                0                
! Port Impedance         50               0                50               0                
16.98                          0.556126677805757 -0.681890807762624 0.830191552012826 89.3371541834632 0.830191552012826 89.3371541834632 0.556126677805757 -0.681890807762624 
! Gamma         0                0                0                0                
! Port Impedance         50               0                50               0                
17                             0.556090632951792 -0.946678283566397 0.830215702751941 89.0720647859031 0.830215702751941 89.0720647859031 0.556090632951792 -0.946678283566396 
! Gamma         0                0                0                0                
! Port Impedance         50               0                50               0                
17.02                          0.556042680985292 -1.21148365771331 0.830247807900329 88.8069571070787 0.830247807900329 88.8069571070787 0.556042680985292 -1.21148365771331 
! Gamma         0                0                0                0                
! Port Impedance         50               0                50               0                
17.04                          0.55598281922845 -1.47631199228993 0.830287866197541 88.5418260670155 0.830287866197541 88.5418260670155 0.55598281922845 -1.47631199228993 
! Gamma         0                0                0                0                
! Port Impedance         50               0                50               0                
17.06                          0.55591104434626 -1.74116834909291 0.830335876081893 88.2766665859663 0.830335876081893 88.2766665859663 0.55591104434626 -1.74116834909291 
! Gamma         0                0                0                0                
! Port Impedance         50               0                50               0                
17.08                          0.555827352346831 -2.00605778957727 0.830391835689764 88.0114735844581 0.830391835689764 88.0114735844581 0.555827352346831 -2.00605778957727 
! Gamma         0                0                0                0                
! Port Impedance         50               0                50               0                
17.1                           0.555731738581759 -2.27098537480427 0.830455742854753 87.7462419833402 0.830455742854753 87.7462419833402 0.555731738581759 -2.27098537480427 
! Gamma         0                0                0                0                
! Port Impedance         50               0                50               0                
17.12                          0.555624197746563 -2.53595616538883 0.830527595106691 87.4809667038318 0.830527595106691 87.4809667038318 0.555624197746563 -2.53595616538883 
! Gamma         0                0                0                0                
! Port Impedance         50               0                50               0                
17.14                          0.555504723881185 -2.80097522144553 0.830607389670526 87.2156426675715 0.830607389670526 87.2156426675715 0.555504723881185 -2.80097522144552 
! Gamma         0                0                0                0                
! Port Impedance         50               0                50               0                
17.16                          0.555373310370549 -3.06604760253396 0.830695123465058 86.9502647966675 0.830695123465058 86.9502647966675 0.555373310370549 -3.06604760253396 
! Gamma         0                0                0                0                
! Port Impedance         50               0                50               0                
17.18                          0.555229949945191 -3.3311783676027 0.830790793101543 86.6848280137487 0.830790793101543 86.6848280137487 0.555229949945191 -3.3311783676027 
! Gamma         0                0                0                0                
! Port Impedance         50               0                50               0                
17.2                           0.55507463468194 -3.59637257493224 0.830894394882155 86.4193272420174 0.830894394882155 86.4193272420174 0.555074634681941 -3.59637257493224 
! Gamma         0                0                0                0                
! Port Impedance         50               0                50               0                
17.22                          0.554907356004681 -3.86163528207611 0.831005924798308 86.1537574053033 0.831005924798308 86.1537574053033 0.554907356004682 -3.86163528207611 
! Gamma         0                0                0                0                
! Port Impedance         50               0                50               0                
17.24                          0.554728104685168 -4.12697154580103 0.831125378528845 85.8881134281184 0.831125378528845 85.8881134281184 0.554728104685168 -4.12697154580103 
! Gamma         0                0                0                0                
! Port Impedance         50               0                50               0                
17.26                          0.554536870843914 -4.3923864220248 0.831252751438079 85.6223902357143 0.831252751438079 85.6223902357143 0.554536870843914 -4.3923864220248 
! Gamma         0                0                0                0                
! Port Impedance         50               0                50               0                
17.28                          0.55433364395114 -4.65788496575308 0.831388038573705 85.3565827541409 0.831388038573705 85.3565827541409 0.554333643951141 -4.65788496575308 
! Gamma         0                0                0                0                
! Port Impedance         50               0                50               0                
17.3                           0.554118412827805 -4.92347223101375 0.83153123466457 85.0906859103065 0.83153123466457 85.0906859103065 0.554118412827805 -4.92347223101375 
! Gamma         0                0                0                0                
! Port Impedance         50               0                50               0                
17.32                          0.553891165646685 -5.18915327078968 0.831682334118297 84.8246946320407 0.831682334118297 84.8246946320407 0.553891165646685 -5.18915327078968 
! Gamma         0                0                0                0                
! Port Impedance         50               0                50               0                
17.34                          0.553651889933545 -5.45493313694891 0.831841331018782 84.5586038481586 0.831841331018782 84.5586038481586 0.553651889933544 -5.45493313694891 
! Gamma         0                0                0                0                
! Port Impedance         50               0                50               0                
17.36                          0.553400572568365 -5.72081688017332 0.832008219123546 84.2924084885271 0.832008219123546 84.2924084885271 0.553400572568364 -5.72081688017332 
! Gamma         0                0                0                0                
! Port Impedance         50               0                50               0                
17.38                          0.553137199786648 -5.98680954988397 0.832182991860946 84.0261034841348 0.832182991860947 84.0261034841348 0.553137199786647 -5.98680954988397 
! Gamma         0                0                0                0                
! Port Impedance         50               0                50               0                
17.4                           0.552861757180798 -6.25291619416478 0.832365642327256 83.7596837671626 0.832365642327256 83.7596837671626 0.552861757180798 -6.25291619416478 
! Gamma         0                0                0                0                
! Port Impedance         50               0                50               0                
17.42                          0.552574229701576 -6.51914185968309 0.832556163283595 83.4931442710577 0.832556163283595 83.4931442710577 0.552574229701576 -6.51914185968309 
! Gamma         0                0                0                0                
! Port Impedance         50               0                50               0                
17.44                          0.552274601659627 -6.7854915916079 0.832754547152733 83.2264799306107 0.832754547152733 83.2264799306107 0.552274601659628 -6.7854915916079 
! Gamma         0                0                0                0                
! Port Impedance         50               0                50               0                
17.46                          0.551962856727096 -7.05197043352463 0.832960786015749 82.9596856820344 0.832960786015748 82.9596856820344 0.551962856727096 -7.05197043352462 
! Gamma         0                0                0                0                
! Port Impedance         50               0                50               0                
17.48                          0.551638977939306 -7.31858342734761 0.833174871608545 82.6927564630465 0.833174871608545 82.6927564630465 0.551638977939306 -7.31858342734761 
! Gamma         0                0                0                0                
! Port Impedance         50               0                50               0                
17.5                           0.551302947696538 -7.58533561322896 0.833396795318237 82.4256872129547 0.833396795318237 82.4256872129547 0.551302947696538 -7.58533561322896 
! Gamma         0                0                0                0                
! Port Impedance         50               0                50               0                
17.52                          0.550954747765874 -7.85223202946435 0.833626548179395 82.1584728727453 0.833626548179394 82.1584728727453 0.550954747765875 -7.85223202946435 
! Gamma         0                0                0                0                
! Port Impedance         50               0                50               0                
17.54                          0.550594359283145 -8.11927771239547 0.833864120870145 81.8911083851747 0.833864120870145 81.8911083851747 0.550594359283145 -8.11927771239547 
! Gamma         0                0                0                0                
! Port Impedance         50               0                50               0                
17.56                          0.550221762754939 -8.38647769630884 0.834109503708142 81.623588694865  0.834109503708142 81.623588694865  0.550221762754939 -8.38647769630884 
! Gamma         0                0                0                0                
! Port Impedance         50               0                50               0                
17.58                          0.549836938060725 -8.65383701333135 0.834362686646394 81.3559087484024 0.834362686646394 81.3559087484024 0.549836938060725 -8.65383701333136 
! Gamma         0                0                0                0                
! Port Impedance         50               0                50               0                
17.6                           0.549439864455047 -8.92136069332134 0.834623659268956 81.0880634944397 0.834623659268956 81.0880634944397 0.549439864455047 -8.92136069332133 
! Gamma         0                0                0                0                
! Port Impedance         50               0                50               0                
17.62                          0.549030520569818 -9.18905376375682 0.83489241078648 80.8200478838019 0.834892410786479 80.8200478838019 0.549030520569818 -9.18905376375682 
! Gamma         0                0                0                0                
! Port Impedance         50               0                50               0                
17.64                          0.548608884416706 -9.45692124961871 0.835168930031628 80.5518568695971 0.835168930031628 80.5518568695971 0.548608884416706 -9.45692124961871 
! Gamma         0                0                0                0                
! Port Impedance         50               0                50               0                
17.66                          0.548174933389618 -9.72496817327035 0.835453205454355 80.2834854073298 0.835453205454355 80.2834854073298 0.548174933389618 -9.72496817327035 
! Gamma         0                0                0                0                
! Port Impedance         50               0                50               0                
17.68                          0.54772864426728 -9.993199554333  0.835745225117043 80.0149284550193 0.835745225117043 80.0149284550193 0.54772864426728 -9.993199554333  
! Gamma         0                0                0                0                
! Port Impedance         50               0                50               0                
17.7                           0.547269993215917 -10.2616204095562 0.836044976689508 79.7461809733227 0.836044976689508 79.7461809733227 0.547269993215917 -10.2616204095562 
! Gamma         0                0                0                0                
! Port Impedance         50               0                50               0                
17.72                          0.546798955792035 -10.5302357526845 0.836352447443856 79.4772379256611 0.836352447443856 79.4772379256611 0.546798955792035 -10.5302357526845 
! Gamma         0                0                0                0                
! Port Impedance         50               0                50               0                
17.74                          0.546315506945314 -10.7990505943187 0.836667624249224 79.2080942783513 0.836667624249224 79.2080942783513 0.546315506945314 -10.7990505943187 
! Gamma         0                0                0                0                
! Port Impedance         50               0                50               0                
17.76                          0.545819621021601 -11.0680699417726 0.83699049356636 78.9387450007421 0.83699049356636 78.9387450007421 0.5458196210216  -11.0680699417726 
! Gamma         0                0                0                0                
! Port Impedance         50               0                50               0                
17.78                          0.545311271766014 -11.3372987989254 0.837321041442085 78.669185065355  0.837321041442086 78.669185065355  0.545311271766014 -11.3372987989254 
! Gamma         0                0                0                0                
! Port Impedance         50               0                50               0                
17.8                           0.544790432326163 -11.6067421660677 0.83765925350361 78.3994094480305 0.83765925350361 78.3994094480305 0.544790432326163 -11.6067421660677 
! Gamma         0                0                0                0                
! Port Impedance         50               0                50               0                
17.82                          0.544257075255482 -11.8764050397433 0.838005114952717 78.1294131280783 0.838005114952718 78.1294131280783 0.544257075255482 -11.8764050397433 
! Gamma         0                0                0                0                
! Port Impedance         50               0                50               0                
17.84                          0.543711172516678 -12.1462924125857 0.838358610559814 77.8591910884341 0.838358610559814 77.8591910884341 0.543711172516678 -12.1462924125857 
! Gamma         0                0                0                0                
! Port Impedance         50               0                50               0                
17.86                          0.543152695485305 -12.4164092731484 0.838719724657841 77.5887383158208 0.838719724657841 77.5887383158208 0.543152695485305 -12.4164092731483 
! Gamma         0                0                0                0                
! Port Impedance         50               0                50               0                
17.88                          0.542581614953454 -12.6867606057298 0.839088441136055 77.3180498009153 0.839088441136055 77.3180498009153 0.542581614953454 -12.6867606057299 
! Gamma         0                0                0                0                
! Port Impedance         50               0                50               0                
17.9                           0.541997901133576 -12.9573513901934 0.839464743433668 77.0471205385213 0.839464743433668 77.0471205385213 0.541997901133576 -12.9573513901934 
! Gamma         0                0                0                0                
! Port Impedance         50               0                50               0                
17.92                          0.541401523662431 -13.2281866017797 0.839848614533368 76.7759455277475 0.839848614533368 76.7759455277475 0.541401523662431 -13.2281866017797 
! Gamma         0                0                0                0                
! Port Impedance         50               0                50               0                
17.94                          0.540792451605168 -13.4992712109152 0.840240036954689 76.5045197721914 0.840240036954689 76.5045197721914 0.540792451605167 -13.4992712109152 
! Gamma         0                0                0                0                
! Port Impedance         50               0                50               0                
17.96                          0.540170653459539 -13.770610183012 0.840638992747263 76.2328382801297 0.840638992747263 76.2328382801297 0.540170653459539 -13.770610183012 
! Gamma         0                0                0                0                
! Port Impedance         50               0                50               0                
17.98                          0.539536097160256 -14.0422084782636 0.841045463483933 75.9608960647148 0.841045463483933 75.9608960647148 0.539536097160257 -14.0422084782636 
! Gamma         0                0                0                0                
! Port Impedance         50               0                50               0                
18                             0.538888750083487 -14.3140710514329 0.841459430253736 75.6886881441768 0.841459430253736 75.6886881441768 0.538888750083487 -14.3140710514329 
! Gamma         0                0                0                0                
! Port Impedance         50               0                50               0                
18.02                          0.53822857905149 -14.5862028516336 0.841880873654757 75.4162095420327 0.841880873654757 75.4162095420327 0.538228579051491 -14.5862028516336 
! Gamma         0                0                0                0                
! Port Impedance         50               0                50               0                
18.04                          0.537555550337406 -14.858608822106 0.842309773786857 75.1434552873019 0.842309773786857 75.1434552873019 0.537555550337406 -14.858608822106 
! Gamma         0                0                0                0                
! Port Impedance         50               0                50               0                
18.06                          0.536869629670194 -15.1312938999838 0.842746110244262 74.8704204147286 0.842746110244262 74.8704204147286 0.536869629670194 -15.1312938999838 
! Gamma         0                0                0                0                
! Port Impedance         50               0                50               0                
18.08                          0.536170782239725 -15.4042630160561 0.843189862108037 74.5970999650101 0.843189862108036 74.5970999650101 0.536170782239725 -15.4042630160561 
! Gamma         0                0                0                0                
! Port Impedance         50               0                50               0                
18.1                           0.535458972702036 -15.6775210945207 0.843641007938422 74.3234889850335 0.843641007938422 74.3234889850335 0.535458972702035 -15.6775210945207 
! Gamma         0                0                0                0                
! Port Impedance         50               0                50               0                
18.12                          0.534734165184736 -15.9510730527306 0.844099525767054 74.0495825281185 0.844099525767054 74.0495825281185 0.534734165184736 -15.9510730527306 
! Gamma         0                0                0                0                
! Port Impedance         50               0                50               0                
18.14                          0.533996323292589 -16.2249238009329 0.844565393089051 73.7753756542672 0.844565393089051 73.7753756542672 0.533996323292589 -16.224923800933 
! Gamma         0                0                0                0                
! Port Impedance         50               0                50               0                
18.16                          0.533245410113261 -16.4990782420002 0.845038586854983 73.5008634304227 0.845038586854983 73.5008634304227 0.533245410113261 -16.4990782420002 
! Gamma         0                0                0                0                
! Port Impedance         50               0                50               0                
18.18                          0.532481388223234 -16.773541271154 0.845519083462715 73.2260409307333 0.845519083462716 73.2260409307333 0.532481388223234 -16.773541271154 
! Gamma         0                0                0                0                
! Port Impedance         50               0                50               0                
18.2                           0.531704219693905 -17.0483177756802 0.846006858749135 72.9509032368261 0.846006858749135 72.9509032368261 0.531704219693905 -17.0483177756802 
! Gamma         0                0                0                0                
! Port Impedance         50               0                50               0                
18.22                          0.530913866097861 -17.3234126346369 0.846501887981749 72.675445438087  0.846501887981749 72.675445438087  0.530913866097861 -17.3234126346369 
! Gamma         0                0                0                0                
! Port Impedance         50               0                50               0                
18.24                          0.530110288515338 -17.598830718553 0.847004145850176 72.3996626319496 0.847004145850176 72.3996626319496 0.530110288515338 -17.598830718553 
! Gamma         0                0                0                0                
! Port Impedance         50               0                50               0                
18.26                          0.529293447540868 -17.8745768891199 0.84751360645751 72.1235499241919 0.84751360645751 72.1235499241919 0.529293447540868 -17.8745768891199 
! Gamma         0                0                0                0                
! Port Impedance         50               0                50               0                
18.28                          0.528463303290117 -18.1506559988732 0.848030243311577 71.8471024292405 0.848030243311577 71.8471024292405 0.528463303290117 -18.1506559988732 
! Gamma         0                0                0                0                
! Port Impedance         50               0                50               0                
18.3                           0.527619815406924 -18.4270728908664 0.848554029316072 71.5703152704849 0.848554029316072 71.5703152704849 0.527619815406923 -18.4270728908664 
! Gamma         0                0                0                0                
! Port Impedance         50               0                50               0                
18.32                          0.526762943070528 -18.7038323983361 0.849084936761587 71.2931835805977 0.849084936761587 71.2931835805977 0.526762943070529 -18.703832398336 
! Gamma         0                0                0                0                
! Port Impedance         50               0                50               0                
18.34                          0.52589264500302 -18.9809393443572 0.849622937316529 71.0157025018662 0.849622937316529 71.0157025018662 0.52589264500302 -18.9809393443572 
! Gamma         0                0                0                0                
! Port Impedance         50               0                50               0                
18.36                          0.525008879476977 -19.2583985414902 0.850168002017929 70.7378671865305 0.850168002017929 70.7378671865305 0.525008879476976 -19.2583985414902 
! Gamma         0                0                0                0                
! Port Impedance         50               0                50               0                
18.38                          0.524111604323329 -19.5362147914182 0.850720101262142 70.4596727971322 0.850720101262142 70.4596727971322 0.524111604323329 -19.5362147914182 
! Gamma         0                0                0                0                
! Port Impedance         50               0                50               0                
18.4                           0.523200776939436 -19.8143928845751 0.851279204795449 70.1811145068705 0.851279204795449 70.1811145068705 0.523200776939435 -19.8143928845751 
! Gamma         0                0                0                0                
! Port Impedance         50               0                50               0                
18.42                          0.522276354297383 -20.0929375997636 0.851845281704551 69.9021874999693 0.851845281704551 69.9021874999693 0.522276354297383 -20.0929375997636 
! Gamma         0                0                0                0                
! Port Impedance         50               0                50               0                
18.44                          0.521338292952507 -20.3718537037642 0.852418300406963 69.6228869720521 0.852418300406964 69.6228869720521 0.521338292952508 -20.3718537037642 
! Gamma         0                0                0                0                
! Port Impedance         50               0                50               0                
18.46                          0.520386549052147 -20.6511459509339 0.852998228641322 69.3432081305267 0.852998228641322 69.3432081305267 0.520386549052147 -20.6511459509339 
! Gamma         0                0                0                0                
! Port Impedance         50               0                50               0                
18.48                          0.51942107834463 -20.9308190827948 0.853585033457579 69.0631461949804 0.853585033457579 69.0631461949804 0.51942107834463 -20.9308190827948 
! Gamma         0                0                0                0                
! Port Impedance         50               0                50               0                
18.5                           0.518441836188504 -21.2108778276123 0.854178681207118 68.7826963975839 0.854178681207118 68.7826963975839 0.518441836188504 -21.2108778276123 
! Gamma         0                0                0                0                
! Port Impedance         50               0                50               0                
18.52                          0.517448777562001 -21.491326899964 0.854779137532782 68.5018539835048 0.854779137532782 68.5018539835048 0.517448777562001 -21.491326899964 
! Gamma         0                0                0                0                
! Port Impedance         50               0                50               0                
18.54                          0.516441857072755 -21.7721710002966 0.855386367358795 68.2206142113327 0.855386367358796 68.2206142113327 0.516441857072755 -21.7721710002966 
! Gamma         0                0                0                0                
! Port Impedance         50               0                50               0                
18.56                          0.515421028967774 -22.0534148144736 0.85600033488063 67.9389723535123 0.85600033488063 67.9389723535123 0.515421028967774 -22.0534148144736 
! Gamma         0                0                0                0                
! Port Impedance         50               0                50               0                
18.58                          0.514386247143665 -22.3350630133109 0.856621003554767 67.6569236967885 0.856621003554767 67.6569236967885 0.514386247143665 -22.3350630133109 
! Gamma         0                0                0                0                
! Port Impedance         50               0                50               0                
18.6                           0.513337465157119 -22.6171202521029 0.857248336088393 67.3744635426609 0.857248336088394 67.3744635426609 0.513337465157119 -22.6171202521029 
! Gamma         0                0                0                0                
! Port Impedance         50               0                50               0                
18.62                          0.512274636235669 -22.899591170136 0.857882294429021 67.0915872078492 0.857882294429021 67.0915872078492 0.51227463623567 -22.899591170136 
! Gamma         0                0                0                0                
! Port Impedance         50               0                50               0                
18.64                          0.511197713288713 -23.1824803901919 0.858522839754034 66.8082900247686 0.858522839754034 66.8082900247686 0.511197713288713 -23.1824803901919 
! Gamma         0                0                0                0                
! Port Impedance         50               0                50               0                
18.66                          0.510106648918807 -23.4657925180395 0.859169932460172 66.5245673420172 0.859169932460172 66.5245673420172 0.510106648918807 -23.4657925180395 
! Gamma         0                0                0                0                
! Port Impedance         50               0                50               0                
18.68                          0.509001395433258 -23.7495321419145 0.859823532152945 66.2404145248727 0.859823532152946 66.2404145248727 0.509001395433257 -23.7495321419145 
! Gamma         0                0                0                0                
! Port Impedance         50               0                50               0                
18.7                           0.507881904855972 -24.0337038319883 0.860483597635996 65.9558269558016 0.860483597635996 65.9558269558016 0.507881904855973 -24.0337038319883 
! Gamma         0                0                0                0                
! Port Impedance         50               0                50               0                
18.72                          0.506748128939622 -24.3183121398245 0.861150086900398 65.670800034978  0.861150086900398 65.670800034978  0.506748128939623 -24.3183121398245 
! Gamma         0                0                0                0                
! Port Impedance         50               0                50               0                
18.74                          0.505600019178085 -24.6033615978233 0.861822957113912 65.3853291808151 0.861822957113912 65.3853291808151 0.505600019178085 -24.6033615978233 
! Gamma         0                0                0                0                
! Port Impedance         50               0                50               0                
18.76                          0.50443752681919 -24.8888567186549 0.862502164610184 65.0994098305069 0.862502164610185 65.0994098305069 0.50443752681919 -24.8888567186549 
! Gamma         0                0                0                0                
! Port Impedance         50               0                50               0                
18.78                          0.503260602877769 -25.1748019946791 0.863187664877917 64.8130374405818 0.863187664877917 64.8130374405818 0.503260602877769 -25.1748019946791 
! Gamma         0                0                0                0                
! Port Impedance         50               0                50               0                
18.8                           0.502069198149012 -25.4612018973537 0.863879412549984 64.5262074874677 0.863879412549984 64.5262074874677 0.502069198149012 -25.4612018973537 
! Gamma         0                0                0                0                
! Port Impedance         50               0                50               0                
18.82                          0.500863263222133 -25.7480608766302 0.864577361392527 64.2389154680693 0.864577361392527 64.2389154680693 0.500863263222134 -25.7480608766302 
! Gamma         0                0                0                0                
! Port Impedance         50               0                50               0                
18.84                          0.499642748494362 -26.0353833603365 0.865281464294014 63.9511569003554 0.865281464294014 63.9511569003554 0.499642748494362 -26.0353833603365 
! Gamma         0                0                0                0                
! Port Impedance         50               0                50               0                
18.86                          0.498407604185245 -26.3231737535471 0.865991673254286 63.6629273239606 0.865991673254286 63.6629273239606 0.498407604185245 -26.3231737535471 
! Gamma         0                0                0                0                
! Port Impedance         50               0                50               0                
18.88                          0.497157780351281 -26.6114364379406 0.866707939373572 63.3742223007965 0.866707939373572 63.3742223007965 0.497157780351281 -26.6114364379406 
! Gamma         0                0                0                0                
! Port Impedance         50               0                50               0                
18.9                           0.495893226900886 -26.9001757711435 0.867430212841502 63.085037415677  0.867430212841502 63.085037415677  0.495893226900886 -26.9001757711435 
! Gamma         0                0                0                0                
! Port Impedance         50               0                50               0                
18.92                          0.494613893609687 -27.1893960860619 0.868158442926109 62.795368276954  0.868158442926109 62.795368276954  0.494613893609686 -27.1893960860619 
! Gamma         0                0                0                0                
! Port Impedance         50               0                50               0                
18.94                          0.493319730136163 -27.479101690199 0.868892577962836 62.5052105171662 0.868892577962836 62.5052105171662 0.493319730136163 -27.479101690199 
! Gamma         0                0                0                0                
! Port Impedance         50               0                50               0                
18.96                          0.492010686037628 -27.7692968649597 0.869632565343539 62.2145597937007 0.869632565343539 62.2145597937007 0.492010686037628 -27.7692968649597 
! Gamma         0                0                0                0                
! Port Impedance         50               0                50               0                
18.98                          0.490686710786553 -28.0599858649417 0.870378351505506 61.9234117894655 0.870378351505506 61.9234117894655 0.490686710786553 -28.0599858649416 
! Gamma         0                0                0                0                
! Port Impedance         50               0                50               0                
19                             0.489347753787252 -28.3511729172125 0.8711298819205  61.6317622135754 0.8711298819205  61.6317622135754 0.489347753787252 -28.3511729172125 
! Gamma         0                0                0                0                
! Port Impedance         50               0                50               0                
19.02                          0.487993764392919 -28.6428622205736 0.871887101083815 61.339606802051  0.871887101083815 61.339606802051  0.48799376439292 -28.6428622205736 
! Gamma         0                0                0                0                
! Port Impedance         50               0                50               0                
19.04                          0.486624691923021 -28.9350579448097 0.87264995250337 61.0469413185284 0.87264995250337 61.0469413185284 0.486624691923021 -28.9350579448097 
! Gamma         0                0                0                0                
! Port Impedance         50               0                50               0                
19.06                          0.485240485681064 -29.2277642299251 0.873418378688845 60.7537615549835 0.873418378688845 60.7537615549835 0.485240485681064 -29.2277642299251 
! Gamma         0                0                0                0                
! Port Impedance         50               0                50               0                
19.08                          0.483841094972717 -29.5209851853651 0.874192321140851 60.4600633324675 0.874192321140851 60.4600633324675 0.483841094972717 -29.5209851853651 
! Gamma         0                0                0                0                
! Port Impedance         50               0                50               0                
19.1                           0.482426469124317 -29.8147248892239 0.874971720340163 60.1658425018562 0.874971720340164 60.1658425018562 0.482426469124317 -29.814724889224 
! Gamma         0                0                0                0                
! Port Impedance         50               0                50               0                
19.12                          0.480996557501744 -30.1089873874379 0.875756515737011 59.8710949446111 0.875756515737011 59.8710949446111 0.480996557501744 -30.1089873874379 
! Gamma         0                0                0                0                
! Port Impedance         50               0                50               0                
19.14                          0.479551309529675 -30.4037766929648 0.876546645740434 59.575816573554  0.876546645740434 59.575816573554  0.479551309529675 -30.4037766929648 
! Gamma         0                0                0                0                
! Port Impedance         50               0                50               0                
19.16                          0.478090674711221 -30.6990967849481 0.877342047707718 59.280003333654  0.877342047707718 59.280003333654  0.478090674711221 -30.6990967849481 
! Gamma         0                0                0                0                
! Port Impedance         50               0                50               0                
19.18                          0.476614602647952 -30.9949516078676 0.87814265793391 58.9836512028277 0.87814265793391 58.9836512028277 0.476614602647952 -30.9949516078676 
! Gamma         0                0                0                0                
! Port Impedance         50               0                50               0                
19.2                           0.475123043060307 -31.2913450706744 0.878948411641434 58.6867561927516 0.878948411641434 58.6867561927515 0.475123043060307 -31.2913450706744 
! Gamma         0                0                0                0                
! Port Impedance         50               0                50               0                
19.22                          0.473615945808398 -31.5882810459121 0.8797592429698  58.3893143496879 0.8797592429698  58.3893143496879 0.473615945808398 -31.5882810459121 
! Gamma         0                0                0                0                
! Port Impedance         50               0                50               0                
19.24                          0.472093260913207 -31.8857633688227 0.880575084965428 58.0913217553234 0.880575084965428 58.0913217553234 0.472093260913207 -31.8857633688227 
! Gamma         0                0                0                0                
! Port Impedance         50               0                50               0                
19.26                          0.470554938578184 -32.1837958364379 0.881395869571587 57.7927745276202 0.881395869571587 57.7927745276202 0.470554938578184 -32.1837958364379 
! Gamma         0                0                0                0                
! Port Impedance         50               0                50               0                
19.28                          0.469000929211238 -32.4823822066555 0.882221527618471 57.4936688216802 0.882221527618471 57.4936688216802 0.469000929211238 -32.4823822066555 
! Gamma         0                0                0                0                
! Port Impedance         50               0                50               0                
19.3                           0.467431183447138 -32.7815261973005 0.883051988813401 57.194000830622  0.883051988813401 57.194000830622  0.467431183447139 -32.7815261973004 
! Gamma         0                0                0                0                
! Port Impedance         50               0                50               0                
19.32                          0.465845652170311 -33.0812314851718 0.883887181731185 56.8937667864706 0.883887181731185 56.8937667864706 0.465845652170311 -33.0812314851718 
! Gamma         0                0                0                0                
! Port Impedance         50               0                50               0                
19.34                          0.464244286538052 -33.3815017050731 0.884727033804629 56.5929629610599 0.884727033804629 56.5929629610599 0.464244286538051 -33.3815017050731 
! Gamma         0                0                0                0                
! Port Impedance         50               0                50               0                
19.36                          0.462627038004135 -33.6823404488296 0.88557147131522 56.2915856669475 0.88557147131522 56.2915856669475 0.462627038004135 -33.6823404488296 
! Gamma         0                0                0                0                
! Port Impedance         50               0                50               0                
19.38                          0.460993858342846 -33.9837512642882 0.886420419383984 55.9896312583428 0.886420419383983 55.9896312583428 0.460993858342846 -33.9837512642882 
! Gamma         0                0                0                0                
! Port Impedance         50               0                50               0                
19.4                           0.459344699673408 -34.2857376543038 0.887273801962532 55.6870961320471 0.887273801962532 55.6870961320471 0.459344699673408 -34.2857376543038 
! Gamma         0                0                0                0                
! Port Impedance         50               0                50               0                
19.42                          0.457679514484834 -34.5883030757096 0.888131541824311 55.3839767284059 0.888131541824311 55.3839767284059 0.457679514484834 -34.5883030757096 
! Gamma         0                0                0                0                
! Port Impedance         50               0                50               0                
19.44                          0.455998255661187 -34.891450938272 0.888993560556057 55.0802695322748 0.888993560556057 55.0802695322748 0.455998255661187 -34.891450938272 
! Gamma         0                0                0                0                
! Port Impedance         50               0                50               0                
19.46                          0.454300876507248 -35.1951846036309 0.889859778549479 54.7759710739962 0.88985977854948 54.7759710739962 0.454300876507247 -35.195184603631 
! Gamma         0                0                0                0                
! Port Impedance         50               0                50               0                
19.48                          0.452587330774603 -35.4995073842239 0.890730114993164 54.4710779303891 0.890730114993165 54.4710779303891 0.452587330774603 -35.4995073842239 
! Gamma         0                0                0                0                
! Port Impedance         50               0                50               0                
19.5                           0.450857572688145 -35.804422542195 0.891604487864739 54.1655867257502 0.891604487864739 54.1655867257502 0.450857572688144 -35.804422542195 
! Gamma         0                0                0                0                
! Port Impedance         50               0                50               0                
19.52                          0.449111556972978 -36.109933288289 0.892482813923278 53.8594941328683 0.892482813923278 53.8594941328683 0.449111556972978 -36.109933288289 
! Gamma         0                0                0                0                
! Port Impedance         50               0                50               0                
19.54                          0.44734923888175 -36.4160427807293 0.893365008701989 53.5527968740485 0.893365008701989 53.5527968740485 0.44734923888175 -36.4160427807293 
! Gamma         0                0                0                0                
! Port Impedance         50               0                50               0                
19.56                          0.445570574222379 -36.7227541240805 0.894250986501172 53.2454917221496 0.894250986501172 53.2454917221496 0.445570574222378 -36.7227541240805 
! Gamma         0                0                0                0                
! Port Impedance         50               0                50               0                
19.58                          0.443775519386201 -37.0300703680961 0.895140660381471 52.9375755016324 0.895140660381471 52.9375755016324 0.443775519386201 -37.0300703680961 
! Gamma         0                0                0                0                
! Port Impedance         50               0                50               0                
19.6                           0.441964031376525 -37.3379945065503 0.89603394215744 52.6290450896188 0.89603394215744 52.6290450896188 0.441964031376525 -37.3379945065503 
! Gamma         0                0                0                0                
! Port Impedance         50               0                50               0                
19.62                          0.44013606783759 -37.6465294760543 0.896930742391413 52.3198974169632 0.896930742391413 52.3198974169632 0.440136067837591 -37.6465294760543 
! Gamma         0                0                0                0                
! Port Impedance         50               0                50               0                
19.64                          0.438291587083927 -37.9556781548571 0.897830970387723 52.0101294693328 0.897830970387723 52.0101294693328 0.438291587083927 -37.9556781548571 
! Gamma         0                0                0                0                
! Port Impedance         50               0                50               0                
19.66                          0.436430548130128 -38.2654433616312 0.898734534187247 51.699738288301  0.898734534187247 51.699738288301  0.436430548130128 -38.2654433616312 
! Gamma         0                0                0                0                
! Port Impedance         50               0                50               0                
19.68                          0.434552910721002 -38.5758278542424 0.899641340562322 51.388720972449  0.899641340562322 51.388720972449  0.434552910721002 -38.5758278542424 
! Gamma         0                0                0                0                
! Port Impedance         50               0                50               0                
19.7                           0.43265863536214 -38.8868343285046 0.90055129501203 51.0770746784788 0.90055129501203 51.0770746784788 0.43265863536214 -38.8868343285045 
! Gamma         0                0                0                0                
! Port Impedance         50               0                50               0                
19.72                          0.430747683350859 -39.1984654169177 0.901464301757859 50.7647966223361 0.901464301757859 50.7647966223361 0.430747683350859 -39.1984654169177 
! Gamma         0                0                0                0                
! Port Impedance         50               0                50               0                
19.74                          0.428820016807537 -39.510723687393 0.902380263739775 50.4518840803417 0.902380263739775 50.4518840803417 0.428820016807537 -39.510723687393 
! Gamma         0                0                0                0                
! Port Impedance         50               0                50               0                
19.76                          0.426875598707332 -39.8236116419593 0.903299082612699 50.1383343903343 0.9032990826127  50.1383343903343 0.426875598707332 -39.8236116419593 
! Gamma         0                0                0                0                
! Port Impedance         50               0                50               0                
19.78                          0.424914392912271 -40.1371317154569 0.904220658743414 49.8241449528199 0.904220658743414 49.8241449528199 0.424914392912271 -40.1371317154568 
! Gamma         0                0                0                0                
! Port Impedance         50               0                50               0                
19.8                           0.422936364203719 -40.4512862742136 0.905144891207908 49.5093132321318 0.905144891207908 49.5093132321318 0.422936364203719 -40.4512862742136 
! Gamma         0                0                0                0                
! Port Impedance         50               0                50               0                
19.82                          0.420941478315207 -40.7660776147067 0.906071677789178 49.1938367575983 0.906071677789178 49.1938367575983 0.420941478315207 -40.7660776147067 
! Gamma         0                0                0                0                
! Port Impedance         50               0                50               0                
19.84                          0.418929701965615 -41.0815079622095 0.907000914975501 48.8777131247179 0.907000914975501 48.8777131247179 0.418929701965614 -41.0815079622095 
! Gamma         0                0                0                0                
! Port Impedance         50               0                50               0                
19.86                          0.416901002892716 -41.3975794694207 0.907932497959188 48.5609399963439 0.907932497959188 48.5609399963439 0.416901002892716 -41.3975794694207 
! Gamma         0                0                0                0                
! Port Impedance         50               0                50               0                
19.88                          0.414855349887057 -41.7142942150801 0.908866320635842 48.2435151038736 0.908866320635842 48.2435151038736 0.414855349887056 -41.7142942150801 
! Gamma         0                0                0                0                
! Port Impedance         50               0                50               0                
19.9                           0.412792712826172 -42.0316542025675 0.909802275604116 47.9254362484469 0.909802275604116 47.9254362484469 0.412792712826172 -42.0316542025675 
! Gamma         0                0                0                0                
! Port Impedance         50               0                50               0                
19.92                          0.410713062709134 -42.3496613584869 0.910740254166019 47.6067013021502 0.910740254166019 47.6067013021502 0.410713062709134 -42.3496613584869 
! Gamma         0                0                0                0                
! Port Impedance         50               0                50               0                
19.94                          0.408616371691411 -42.6683175312337 0.911680146327745 47.2873082092261 0.911680146327746 47.2873082092261 0.408616371691411 -42.6683175312337 
! Gamma         0                0                0                0                
! Port Impedance         50               0                50               0                
19.96                          0.406502613120042 -42.9876244895474 0.912621840801079 46.9672549872898 0.912621840801079 46.9672549872898 0.406502613120042 -42.9876244895473 
! Gamma         0                0                0                0                
! Port Impedance         50               0                50               0                
19.98                          0.404371761569098 -43.3075839210476 0.913565225005354 46.6465397285491 0.913565225005354 46.6465397285491 0.404371761569098 -43.3075839210476 
! Gamma         0                0                0                0                
! Port Impedance         50               0                50               0                
20                             0.402223792875447 -43.6281974307546 0.914510185070014 46.3251606010307 0.914510185070014 46.3251606010307 0.402223792875447 -43.6281974307546 
! Gamma         0                0                0                0                
! Port Impedance         50               0                50               0                
! Noise Data
