! Touchstone file exported from Circuit Design 2026.1.0
!        File:           local/demo-project/Project1.aedt
!        Generated:      01:57:56 PM Apr 21, 2026
!        Design:         Circuit1
!        Project:        Project1
!        Setup:          LinearFrequency
!        Solution:       LinearFrequency
!
# GHz S MA R 50.000000
! Terminal data exported
! Port[1] = Port1
! Port[2] = Port2
0                              0.000106656328508167 -0               0.999893343671492 -0               0.999893343671492 -0               0.000106656328507916 -0               
! Gamma         0                0                0                0                
! Port Impedance         50               0                50               0                
0.02                           0.00413791087661868 88.0145836719577 0.999878712298627 -0.42426496262323 0.999878712298626 -0.424264962623231 0.00413791087661869 88.0145836719525 
! Gamma         0                0                0                0                
! Port Impedance         50               0                50               0                
0.04                           0.00826591383134591 88.283561194166  0.999840574127018 -0.848090426186787 0.999840574127018 -0.848090426186787 0.00826591383134591 88.2835611941669 
! Gamma         0                0                0                0                
! Port Impedance         50               0                50               0                
0.06                           0.012387492211046 88.0862509462828 0.999784434544947 -1.27153707690271 0.999784434544947 -1.27153707690271 0.012387492211046 88.0862509462828 
! Gamma         0                0                0                0                
! Port Impedance         50               0                50               0                
0.08                           0.016504139868892 87.7777024165528 0.999711835919386 -1.69471550089028 0.999711835919387 -1.69471550089028 0.016504139868892 87.7777024165541 
! Gamma         0                0                0                0                
! Port Impedance         50               0                50               0                
0.1                            0.0206167291615623 87.4255266173856 0.999623094692783 -2.11768552120063 0.999623094692783 -2.11768552120063 0.0206167291615623 87.4255266173853 
! Gamma         0                0                0                0                
! Port Impedance         50               0                50               0                
0.12                           0.0247256275775073 87.051593149284  0.999518240538423 -2.54047568933863 0.999518240538423 -2.54047568933863 0.0247256275775073 87.0515931492837 
! Gamma         0                0                0                0                
! Port Impedance         50               0                50               0                
0.14                           0.0288309273372847 86.6651521594357 0.999397242439251 -2.96309814991565 0.999397242439251 -2.96309814991565 0.0288309273372847 86.6651521594352 
! Gamma         0                0                0                0                
! Port Impedance         50               0                50               0                
0.16                           0.0329325676519393 86.2708210683887 0.999260065863603 -3.38555604324345 0.999260065863603 -3.38555604324345 0.0329325676519393 86.2708210683887 
! Gamma         0                0                0                0                
! Port Impedance         50               0                50               0                
0.18                           0.0370303977276278 85.8711808261622 0.999106687314026 -3.80784723878887 0.999106687314026 -3.80784723878887 0.0370303977276278 85.871180826162  
! Gamma         0                0                0                0                
! Port Impedance         50               0                50               0                
0.2                            0.0411242109271289 85.4677980677972 0.998937097144185 -4.22996633812184 0.998937097144185 -4.22996633812184 0.0411242109271289 85.4677980677972 
! Gamma         0                0                0                0                
! Port Impedance         50               0                50               0                
0.22                           0.045213764416734 85.061685571695  0.998751299090888 -4.65190581916615 0.998751299090887 -4.65190581916615 0.045213764416734 85.0616855716952 
! Gamma         0                0                0                0                
! Port Impedance         50               0                50               0                
0.24                           0.0492987910936559 84.6535315746492 0.998549309015612 -5.07365672730527 0.998549309015612 -5.07365672730527 0.0492987910936559 84.6535315746493 
! Gamma         0                0                0                0                
! Port Impedance         50               0                50               0                
0.26                           0.053379007178774 84.2438232088556 0.998331153605404 -5.49520911329007 0.998331153605404 -5.49520911329007 0.053379007178774 84.2438232088559 
! Gamma         0                0                0                0                
! Port Impedance         50               0                50               0                
0.28                           0.0574541172540968 83.8329172032069 0.99809686923775 -5.91655232239743 0.99809686923775 -5.91655232239744 0.0574541172540968 83.832917203207  
! Gamma         0                0                0                0                
! Port Impedance         50               0                50               0                
0.3                            0.0615238177284611 83.4210824876205 0.997846501040786 -6.33767519232794 0.997846501040786 -6.33767519232794 0.061523817728461 83.4210824876207 
! Gamma         0                0                0                0                
! Port Impedance         50               0                50               0                
0.32                           0.0655877992999538 83.008526974815  0.997580102128455 -6.75856619297165 0.997580102128455 -6.75856619297165 0.0655877992999539 83.0085269748147 
! Gamma         0                0                0                0                
! Port Impedance         50               0                50               0                
0.34                           0.0696457487568403 82.5954150085793 0.99729773297902 -7.17921352791568 0.99729773297902 -7.17921352791568 0.0696457487568404 82.5954150085791 
! Gamma         0                0                0                0                
! Port Impedance         50               0                50               0                
0.36                           0.0736973503297271 82.1818790848646 0.996999460926908 -7.59960521004251 0.996999460926908 -7.59960521004251 0.0736973503297271 82.1818790848646 
! Gamma         0                0                0                0                
! Port Impedance         50               0                50               0                
0.38                           0.0777422867314634 81.768027937271  0.996685359742922 -8.01972911913262 0.996685359742922 -8.01972911913263 0.0777422867314635 81.7680279372711 
! Gamma         0                0                0                0                
! Port Impedance         50               0                50               0                
0.4                            0.0817802399747689 81.353952245509  0.996355509283012 -8.43957304668385 0.996355509283012 -8.43957304668385 0.081780239974769 81.3539522455089 
! Gamma         0                0                0                0                
! Port Impedance         50               0                50               0                
0.42                           0.0858108920283522 80.9397287489173 0.996009995190233 -8.8591247314641 0.996009995190233 -8.8591247314641 0.0858108920283522 80.9397287489173 
! Gamma         0                0                0                0                
! Port Impedance         50               0                50               0                
0.44                           0.0898339253534424 80.5254232649744 0.995648908638095 -9.27837188822278 0.995648908638095 -9.27837188822278 0.0898339253534424 80.5254232649745 
! Gamma         0                0                0                0                
! Port Impedance         50               0                50               0                
0.46                           0.0938490233502135 80.1110929405192 0.995272346106184 -9.69730223126584 0.995272346106184 -9.69730223126585 0.0938490233502136 80.1110929405193 
! Gamma         0                0                0                0                
! Port Impedance         50               0                50               0                
0.48                           0.0978558707352008 79.6967879553671 0.994880409181092 -10.1159034941144 0.994880409181092 -10.1159034941144 0.0978558707352008 79.6967879553671 
! Gamma         0                0                0                0                
! Port Impedance         50               0                50               0                
0.5                            0.101854153865039 79.2825528286074 0.994473204377222 -10.5341634461336 0.994473204377222 -10.5341634461336 0.101854153865039 79.2825528286075 
! Gamma         0                0                0                0                
! Port Impedance         50               0                50               0                
0.52                           0.105843561017834 78.8684274322663 0.994050842973283 -10.9520699067857 0.994050842973283 -10.9520699067857 0.105843561017834 78.8684274322664 
! Gamma         0                0                0                0                
! Port Impedance         50               0                50               0                
0.54                           0.109823782640602 78.4544477864837 0.99361344086119 -11.3696107579965 0.99361344086119 -11.3696107579965 0.109823782640602 78.4544477864835 
! Gamma         0                0                0                0                
! Port Impedance         50               0                50               0                
0.56                           0.11379451156917 78.0406466895217 0.993161118404797 -11.7867739550034 0.993161118404797 -11.7867739550034 0.113794511569171 78.0406466895216 
! Gamma         0                0                0                0                
! Port Impedance         50               0                50               0                
0.58                           0.117755443225406 77.6270542214721 0.992694000306448 -12.2035475359691 0.992694000306448 -12.2035475359691 0.117755443225406 77.6270542214722 
! Gamma         0                0                0                0                
! Port Impedance         50               0                50               0                
0.6                            0.121706275795536 77.2136981503705 0.992212215479728 -12.6199196305782 0.992212215479728 -12.6199196305782 0.121706275795536 77.2136981503704 
! Gamma         0                0                0                0                
! Port Impedance         50               0                50               0                
0.62                           0.125646710392497 76.8006042621544 0.99171589692716 -13.035878467787 0.99171589692716 -13.035878467787 0.125646710392497 76.8006042621545 
! Gamma         0                0                0                0                
! Port Impedance         50               0                50               0                
0.64                           0.129576451204606 76.3877966306679 0.991205181621821 -13.4514123828608 0.991205181621821 -13.4514123828608 0.129576451204606 76.3877966306679 
! Gamma         0                0                0                0                
! Port Impedance         50               0                50               0                
0.66                           0.133495205632387 75.9752978400692 0.990680210392084 -13.866509823804 0.990680210392084 -13.866509823804 0.133495205632387 75.9752978400692 
! Gamma         0                0                0                0                
! Port Impedance         50               0                50               0                
0.68                           0.137402684415001 75.5631291691542 0.990141127808839 -14.2811593572685 0.990141127808839 -14.2811593572685 0.137402684415001 75.5631291691542 
! Gamma         0                0                0                0                
! Port Impedance         50               0                50               0                
0.7                            0.141298601747451 75.1513107449945 0.989588082074673 -14.6953496740084 0.989588082074673 -14.6953496740084 0.141298601747451 75.1513107449945 
! Gamma         0                0                0                0                
! Port Impedance         50               0                50               0                
0.72                           0.145182675389514 74.7398616716781 0.989021224914621 -15.1090695939356 0.989021224914621 -15.1090695939356 0.145182675389514 74.7398616716781 
! Gamma         0                0                0                0                
! Port Impedance         50               0                50               0                
0.74                           0.149054626767163 74.3288001387257 0.988440711468141 -15.5223080708224 0.988440711468141 -15.5223080708224 0.149054626767163 74.3288001387256 
! Gamma         0                0                0                0                
! Port Impedance         50               0                50               0                
0.76                           0.15291418106712 73.9181435128168 0.987846700182091 -15.9350541966876 0.987846700182091 -15.9350541966876 0.15291418106712 73.9181435128168 
! Gamma         0                0                0                0                
! Port Impedance         50               0                50               0                
0.78                           0.156761067325058 73.5079084157346 0.987239352704477 -16.3472972058961 0.987239352704477 -16.3472972058961 0.156761067325058 73.5079084157346 
! Gamma         0                0                0                0                
! Port Impedance         50               0                50               0                
0.8                            0.160595018507894 73.0981107908732 0.986618833778853 -16.7590264789978 0.986618833778853 -16.7590264789978 0.160595018507894 73.0981107908732 
! Gamma         0                0                0                0                
! Port Impedance         50               0                50               0                
0.82                           0.164415771590529 72.6887659602065 0.985985311139242 -17.1702315463276 0.985985311139242 -17.1702315463276 0.164415771590529 72.6887659602064 
! Gamma         0                0                0                0                
! Port Impedance         50               0                50               0                
0.84                           0.16822306762735 72.2798886732674 0.985338955405494 -17.5809020913819 0.985338955405494 -17.5809020913819 0.16822306762735 72.2798886732673 
! Gamma         0                0                0                0                
! Port Impedance         50               0                50               0                
0.86                           0.17201665181875 71.871493149405  0.984679939979048 -17.9910279539901 0.984679939979048 -17.9910279539901 0.17201665181875 71.871493149405  
! Gamma         0                0                0                0                
! Port Impedance         50               0                50               0                
0.88                           0.175796273572899 71.4635931143649 0.984008440939032 -18.4005991332904 0.984008440939032 -18.4005991332903 0.175796273572899 71.4635931143648 
! Gamma         0                0                0                0                
! Port Impedance         50               0                50               0                
0.9                            0.179561686562946 71.056201832058  0.983324636938709 -18.809605790523 0.983324636938709 -18.809605790523 0.179561686562946 71.0562018320579 
! Gamma         0                0                0                0                
! Port Impedance         50               0                50               0                
0.92                           0.183312648779845 70.6493321322364 0.982628709102257 -19.2180382516494 0.982628709102257 -19.2180382516494 0.183312648779845 70.6493321322364 
! Gamma         0                0                0                0                
! Port Impedance         50               0                50               0                
0.94                           0.187048922580927 70.2429964346767 0.981920840921888 -19.6258870098055 0.981920840921888 -19.6258870098055 0.187048922580926 70.2429964346767 
! Gamma         0                0                0                0                
! Port Impedance         50               0                50               0                
0.96                           0.190770274734378 69.8372067703741 0.981201218155338 -20.0331427275966 0.981201218155339 -20.0331427275966 0.190770274734377 69.8372067703742 
! Gamma         0                0                0                0                
! Port Impedance         50               0                50               0                
0.98                           0.194476476459724 69.4319748001725 0.980470028723745 -20.4397962392391 0.980470028723745 -20.4397962392391 0.194476476459724 69.4319748001726 
! Gamma         0                0                0                0                
! Port Impedance         50               0                50               0                
1                              0.198167303464449 69.0273118311873 0.979727462609954 -20.8458385525563 0.979727462609954 -20.8458385525563 0.198167303464449 69.0273118311873 
! Gamma         0                0                0                0                
! Port Impedance         50               0                50               0                
1.02                           0.20184253597683 68.6232288313242 0.978973711757282 -21.2512608508313 0.978973711757282 -21.2512608508313 0.20184253597683 68.6232288313242 
! Gamma         0                0                0                0                
! Port Impedance         50               0                50               0                
1.04                           0.205501958775102 68.2197364421557 0.978208969968808 -21.656054494523 0.978208969968808 -21.6560544945229 0.205501958775102 68.2197364421557 
! Gamma         0                0                0                0                
! Port Impedance         50               0                50               0                
1.06                           0.20914536121303 67.8168449903718 0.9774334328072  -22.0602110228483 0.977433432807199 -22.0602110228483 0.20914536121303 67.8168449903718 
! Gamma         0                0                0                0                
! Port Impedance         50               0                50               0                
1.08                           0.212772537241976 67.4145644979962 0.976647297495164 -22.4637221552349 0.976647297495164 -22.4637221552349 0.212772537241976 67.4145644979963 
! Gamma         0                0                0                0                
! Port Impedance         50               0                50               0                
1.1                            0.216383285429543 67.0129046915306 0.975850762816552 -22.8665797926474 0.975850762816551 -22.8665797926474 0.216383285429543 67.0129046915305 
! Gamma         0                0                0                0                
! Port Impedance         50               0                50               0                
1.12                           0.219977408974871 66.611875010164  0.975044029018165 -23.2687760187906 0.975044029018165 -23.2687760187906 0.219977408974871 66.6118750101639 
! Gamma         0                0                0                0                
! Port Impedance         50               0                50               0                
1.14                           0.223554715720667 66.2114846131718 0.974227297712348 -23.6703031011928 0.974227297712348 -23.6703031011928 0.223554715720668 66.2114846131718 
! Gamma         0                0                0                0                
! Port Impedance         50               0                50               0                
1.16                           0.227115018162042 65.8117423866049 0.973400771780381 -24.071153492172 0.973400771780381 -24.071153492172 0.227115018162041 65.8117423866049 
! Gamma         0                0                0                0                
! Port Impedance         50               0                50               0                
1.18                           0.230658133452218 65.4126569493621 0.972564655276759 -24.4713198296874 0.972564655276759 -24.4713198296874 0.230658133452218 65.4126569493622 
! Gamma         0                0                0                0                
! Port Impedance         50               0                50               0                
1.2                            0.234183883405203 65.0142366587227 0.971719153334396 -24.8707949380795 0.971719153334396 -24.8707949380795 0.234183883405204 65.0142366587227 
! Gamma         0                0                0                0                
! Port Impedance         50               0                50               0                
1.22                           0.237692094495477 64.6164896154091 0.970864472070807 -25.2695718287009 0.970864472070806 -25.2695718287009 0.237692094495477 64.616489615409  
! Gamma         0                0                0                0                
! Port Impedance         50               0                50               0                
1.24                           0.241182597854779 64.2194236682381 0.970000818495328 -25.6676437004406 0.970000818495328 -25.6676437004406 0.241182597854778 64.2194236682382 
! Gamma         0                0                0                0                
! Port Impedance         50               0                50               0                
1.26                           0.244655229266063 63.8230464184148 0.969128400417422 -26.0650039401432 0.969128400417422 -26.0650039401432 0.244655229266063 63.8230464184149 
! Gamma         0                0                0                0                
! Port Impedance         50               0                50               0                
1.28                           0.248109829154697 63.4273652235114 0.968247426356113 -26.461646122928 0.968247426356113 -26.461646122928 0.248109829154697 63.4273652235114 
! Gamma         0                0                0                0                
! Port Impedance         50               0                50               0                
1.3                            0.251546242576971 63.0323872011754 0.967358105450606 -26.8575640124068 0.967358105450607 -26.8575640124068 0.251546242576971 63.0323872011754 
! Gamma         0                0                0                0                
! Port Impedance         50               0                50               0                
1.32                           0.254964319205985 62.6381192325991 0.966460647372142 -27.2527515608058 0.966460647372142 -27.2527515608058 0.254964319205985 62.6381192325992 
! Gamma         0                0                0                0                
! Port Impedance         50               0                50               0                
1.34                           0.258363913315005 62.2445679657821 0.965555262237115 -27.6472029089923 0.965555262237114 -27.6472029089923 0.258363913315005 62.2445679657821 
! Gamma         0                0                0                0                
! Port Impedance         50               0                50               0                
1.36                           0.261744883758338 61.851739818615  0.964642160521515 -28.040912386409 0.964642160521515 -28.040912386409 0.261744883758338 61.851739818615  
! Gamma         0                0                0                0                
! Port Impedance         50               0                50               0                
1.38                           0.265107093949813 61.4596409818064 0.963721552976738 -28.4338745109179 0.963721552976738 -28.4338745109179 0.265107093949813 61.4596409818064 
! Gamma         0                0                0                0                
! Port Impedance         50               0                50               0                
1.4                            0.268450411838936 61.0682774216762 0.962793650546769 -28.826083988557 0.962793650546768 -28.826083988557 0.268450411838936 61.0682774216762 
! Gamma         0                0                0                0                
! Port Impedance         50               0                50               0                
1.42                           0.27177470988479 60.677654882832  0.961858664286822 -29.2175357132106 0.961858664286822 -29.2175357132106 0.27177470988479 60.677654882832  
! Gamma         0                0                0                0                
! Port Impedance         50               0                50               0                
1.44                           0.275079865027762 60.2877788907458 0.960916805283445 -29.6082247661967 0.960916805283445 -29.6082247661967 0.275079865027763 60.2877788907458 
! Gamma         0                0                0                0                
! Port Impedance         50               0                50               0                
1.46                           0.278365758659156 59.8986547542453 0.959968284576121 -29.9981464157736 0.959968284576121 -29.9981464157736 0.278365758659156 59.8986547542453 
! Gamma         0                0                0                0                
! Port Impedance         50               0                50               0                
1.48                           0.281632276588774 59.5102875679327 0.959013313080404 -30.3872961165674 0.959013313080404 -30.3872961165674 0.281632276588774 59.5102875679326 
! Gamma         0                0                0                0                
! Port Impedance         50               0                50               0                
1.5                            0.284879309010546 59.1226822145407 0.95805210151262 -30.7756695089234 0.95805210151262 -30.7756695089234 0.284879309010546 59.1226822145408 
! Gamma         0                0                0                0                
! Port Impedance         50               0                50               0                
1.52                           0.28810675046626 58.7358433672382 0.957084860316154 -31.1632624181827 0.957084860316154 -31.1632624181827 0.28810675046626 58.7358433672382 
! Gamma         0                0                0                0                
! Port Impedance         50               0                50               0                
1.54                           0.291314499807491 58.3497754918907 0.956111799589348 -31.5500708538878 0.956111799589349 -31.5500708538878 0.291314499807491 58.3497754918907 
! Gamma         0                0                0                0                
! Port Impedance         50               0                50               0                
1.56                           0.294502460155774 57.9644828492867 0.955133129015031 -31.936091008918 0.955133129015032 -31.936091008918 0.294502460155774 57.9644828492867 
! Gamma         0                0                0                0                
! Port Impedance         50               0                50               0                
1.58                           0.297670538861124 57.5799694973336 0.954149057791704 -32.3213192585572 0.954149057791703 -32.3213192585572 0.297670538861124 57.5799694973335 
! Gamma         0                0                0                0                
! Port Impedance         50               0                50               0                
1.6                            0.30081864745895 57.1962392932305 0.953159794566391 -32.7057521594973 0.95315979456639 -32.7057521594973 0.30081864745895 57.1962392932305 
! Gamma         0                0                0                0                
! Port Impedance         50               0                50               0                
1.62                           0.303946701625443 56.8132958956228 0.952165547369184 -33.0893864487784 0.952165547369183 -33.0893864487783 0.303946701625443 56.8132958956229 
! Gamma         0                0                0                0                
! Port Impedance         50               0                50               0                
1.64                           0.307054621131517 56.4311427667421 0.951166523549474 -33.4722190426678 0.951166523549475 -33.4722190426678 0.307054621131517 56.4311427667421 
! Gamma         0                0                0                0                
! Port Impedance         50               0                50               0                
1.66                           0.310142329795361 56.0497831745358 0.950162929713907 -33.8542470354819 0.950162929713907 -33.8542470354819 0.31014232979536 56.0497831745359 
! Gamma         0                0                0                0                
! Port Impedance         50               0                50               0                
1.68                           0.313209755433681 55.6692201947898 0.949154971666039 -34.2354676983509 0.949154971666039 -34.2354676983509 0.313209755433681 55.6692201947898 
! Gamma         0                0                0                0                
! Port Impedance         50               0                50               0                
1.7                            0.316256829811698 55.289456713246  0.948142854347734 -34.6158784779296 0.948142854347734 -34.6158784779296 0.316256829811698 55.289456713246  
! Gamma         0                0                0                0                
! Port Impedance         50               0                50               0                
1.72                           0.31928348859197 54.9104954277182 0.94712678178228 -34.9954769950571 0.94712678178228 -34.9954769950571 0.31928348859197 54.9104954277181 
! Gamma         0                0                0                0                
! Port Impedance         50               0                50               0                
1.74                           0.322289671282105 54.5323388502075 0.946106957019246 -35.3742610433663 0.946106957019246 -35.3742610433663 0.322289671282104 54.5323388502075 
! Gamma         0                0                0                0                
! Port Impedance         50               0                50               0                
1.76                           0.325275321181438 54.1549893090191 0.945083582081069 -35.7522285878465 0.945083582081069 -35.7522285878465 0.325275321181438 54.1549893090191 
! Gamma         0                0                0                0                
! Port Impedance         50               0                50               0                
1.78                           0.328240385326735 53.7784489508812 0.944056857911371 -36.1293777633601 0.944056857911371 -36.1293777633601 0.328240385326735 53.7784489508812 
! Gamma         0                0                0                0                
! Port Impedance         50               0                50               0                
1.8                            0.331184814436979 53.402719743068  0.943026984325016 -36.5057068731166 0.943026984325016 -36.5057068731166 0.331184814436979 53.402719743068  
! Gamma         0                0                0                0                
! Port Impedance         50               0                50               0                
1.82                           0.334108562857319 53.0278034755271 0.941994159959886 -36.8812143871055 0.941994159959886 -36.8812143871055 0.334108562857319 53.0278034755271 
! Gamma         0                0                0                0                
! Port Impedance         50               0                50               0                
1.84                           0.33701158850224 52.6537017630114 0.940958582230378 -37.2558989404903 0.940958582230378 -37.2558989404903 0.33701158850224 52.6537017630114 
! Gamma         0                0                0                0                
! Port Impedance         50               0                50               0                
1.86                           0.339893852798   52.2804160472166 0.939920447282619 -37.629759331965 0.939920447282619 -37.629759331965 0.339893852798   52.2804160472166 
! Gamma         0                0                0                0                
! Port Impedance         50               0                50               0                
1.88                           0.342755320624425 51.9079475989244 0.938879949951379 -38.0027945220766 0.938879949951379 -38.0027945220766 0.342755320624425 51.9079475989244 
! Gamma         0                0                0                0                
! Port Impedance         50               0                50               0                
1.9                            0.345595960256089 51.5362975201506 0.937837283718681 -38.3750036315141 0.937837283718681 -38.3750036315141 0.345595960256088 51.5362975201505 
! Gamma         0                0                0                0                
! Port Impedance         50               0                50               0                
1.92                           0.348415743302962 51.165466746299  0.936792640674091 -38.7463859393665 0.936792640674091 -38.7463859393665 0.348415743302962 51.165466746299  
! Gamma         0                0                0                0                
! Port Impedance         50               0                50               0                
1.94                           0.351214644650577 50.7954560483211 0.935746211476677 -39.1169408813524 0.935746211476677 -39.1169408813525 0.351214644650577 50.7954560483211 
! Gamma         0                0                0                0                
! Port Impedance         50               0                50               0                
1.96                           0.353992642399756 50.4262660348798 0.934698185318617 -39.4866680480218 0.934698185318617 -39.4866680480218 0.353992642399756 50.4262660348797 
! Gamma         0                0                0                0                
! Port Impedance         50               0                50               0                
1.98                           0.356749717805977 50.057897154518  0.93364874989045 -39.8555671829332 0.93364874989045 -39.8555671829332 0.356749717805977 50.057897154518  
! Gamma         0                0                0                0                
! Port Impedance         50               0                50               0                
2                              0.359485855218413 49.6903496978316 0.932598091347943 -40.223638180807 0.932598091347943 -40.223638180807 0.359485855218413 49.6903496978316 
! Gamma         0                0                0                0                
! Port Impedance         50               0                50               0                
2.02                           0.362201042018703 49.3236237996455 0.931546394280558 -40.5908810856576 0.931546394280559 -40.5908810856576 0.362201042018703 49.3236237996455 
! Gamma         0                0                0                0                
! Port Impedance         50               0                50               0                
2.04                           0.36489526855951 48.9577194411932 0.930493841681511 -40.9572960889061 0.930493841681511 -40.9572960889061 0.36489526855951 48.9577194411932 
! Gamma         0                0                0                0                
! Port Impedance         50               0                50               0                
2.06                           0.367568528102905 48.5926364522975 0.929440614919375 -41.3228835274733 0.929440614919375 -41.3228835274733 0.367568528102905 48.5926364522975 
! Gamma         0                0                0                0                
! Port Impedance         50               0                50               0                
2.08                           0.370220816758632 48.228374513554  0.92838689371124 -41.687643881859 0.92838689371124 -41.687643881859 0.370220816758632 48.228374513554  
! Gamma         0                0                0                0                
! Port Impedance         50               0                50               0                
2.1                            0.372852133422304 47.8649331585146 0.927332856097387 -42.0515777742039 0.927332856097387 -42.0515777742039 0.372852133422304 47.8649331585146 
! Gamma         0                0                0                0                
! Port Impedance         50               0                50               0                
2.12                           0.375462479713558 47.5023117758715 0.926278678417451 -42.4146859663409 0.926278678417452 -42.4146859663409 0.375462479713558 47.5023117758716 
! Gamma         0                0                0                0                
! Port Impedance         50               0                50               0                
2.14                           0.378051859914235 47.1405096116401 0.925224535288063 -42.7769693578326 0.925224535288062 -42.7769693578326 0.378051859914235 47.1405096116401 
! Gamma         0                0                0                0                
! Port Impedance         50               0                50               0                
2.16                           0.380620280906611 46.7795257713404 0.924170599581931 -43.1384289840012 0.924170599581931 -43.1384289840012 0.380620280906611 46.7795257713404 
! Gamma         0                0                0                0                
! Port Impedance         50               0                50               0                
2.18                           0.383167752111727 46.4193592221763 0.923117042408351 -43.4990660139482 0.923117042408351 -43.4990660139482 0.383167752111727 46.4193592221763 
! Gamma         0                0                0                0                
! Port Impedance         50               0                50               0                
2.2                            0.385694285427848 46.0600087952118 0.922064033095111 -43.858881748568 0.922064033095111 -43.858881748568 0.385694285427848 46.0600087952117 
! Gamma         0                0                0                0                
! Port Impedance         50               0                50               0                
2.22                           0.38819989516911 45.701473187542  0.921011739171761 -44.2178776185565 0.921011739171761 -44.2178776185565 0.38819989516911 45.7014731875421 
! Gamma         0                0                0                0                
! Port Impedance         50               0                50               0                
2.24                           0.390684598004361 45.3437509644614 0.919960326354226 -44.5760551824141 0.919960326354226 -44.5760551824141 0.390684598004361 45.3437509644614 
! Gamma         0                0                0                0                
! Port Impedance         50               0                50               0                
2.26                           0.393148412896256 44.9868405616238 0.918909958530742 -44.9334161244478 0.918909958530742 -44.9334161244478 0.393148412896256 44.9868405616237 
! Gamma         0                0                0                0                
! Port Impedance         50               0                50               0                
2.28                           0.395591361040634 44.6307402871981 0.917860797749068 -45.2899622527706 0.917860797749068 -45.2899622527706 0.395591361040634 44.6307402871981 
! Gamma         0                0                0                0                
! Port Impedance         50               0                50               0                
2.3                            0.398013465806196 44.2754483240153 0.916813004204969 -45.6456954973012 0.916813004204969 -45.6456954973012 0.398013465806195 44.2754483240153 
! Gamma         0                0                0                0                
! Port Impedance         50               0                50               0                
2.32                           0.40041475267453 43.9209627317077 0.915766736231921 -46.0006179077652 0.915766736231921 -46.0006179077652 0.40041475267453 43.9209627317077 
! Gamma         0                0                0                0                
! Port Impedance         50               0                50               0                
2.34                           0.402795249180513 43.5672814488393 0.914722150292024 -46.3547316516978 0.914722150292024 -46.3547316516978 0.402795249180513 43.5672814488393 
! Gamma         0                0                0                0                
! Port Impedance         50               0                50               0                
2.36                           0.405154984853099 43.2144022950258 0.913679400968086 -46.7080390124506 0.913679400968086 -46.7080390124506 0.405154984853099 43.2144022950258 
! Gamma         0                0                0                0                
! Port Impedance         50               0                50               0                
2.38                           0.407493991156549 42.8623229730454 0.912638640956855 -47.0605423872029 0.912638640956855 -47.060542387203 0.407493991156548 42.8623229730454 
! Gamma         0                0                0                0                
! Port Impedance         50               0                50               0                
2.4                            0.409812301432094 42.5110410709367 0.911600021063365 -47.4122442849784 0.911600021063366 -47.4122442849784 0.409812301432094 42.5110410709367 
! Gamma         0                0                0                0                
! Port Impedance         50               0                50               0                
2.42                           0.412109950840094 42.1605540640857 0.910563690196367 -47.7631473246689 0.910563690196366 -47.7631473246689 0.412109950840094 42.1605540640857 
! Gamma         0                0                0                0                
! Port Impedance         50               0                50               0                
2.44                           0.414386976302682 41.8108593172995 0.909529795364817 -48.1132542330656 0.909529795364817 -48.1132542330656 0.414386976302682 41.8108593172995 
! Gamma         0                0                0                0                
! Port Impedance         50               0                50               0                
2.46                           0.41664341644693 41.4619540868669 0.908498481675399 -48.4625678428991 0.908498481675399 -48.4625678428991 0.41664341644693 41.4619540868669 
! Gamma         0                0                0                0                
! Port Impedance         50               0                50               0                
2.48                           0.418879311548562 41.1138355226047 0.907469892331037 -48.811091090889 0.907469892331038 -48.8110910908891 0.418879311548562 41.1138355226048 
! Gamma         0                0                0                0                
! Port Impedance         50               0                50               0                
2.5                            0.421094703476221 40.7665006698894 0.906444168630386 -49.158827015804 0.906444168630386 -49.158827015804 0.421094703476221 40.7665006698894 
! Gamma         0                0                0                0                
! Port Impedance         50               0                50               0                
2.52                           0.423289635636318 40.4199464716731 0.905421449968252 -49.5057787565332 0.905421449968252 -49.5057787565332 0.423289635636318 40.4199464716731 
! Gamma         0                0                0                0                
! Port Impedance         50               0                50               0                
2.54                           0.425464152918473 40.0741697704837 0.904401873836936 -49.8519495501701 0.904401873836936 -49.8519495501701 0.425464152918473 40.0741697704838 
! Gamma         0                0                0                0                
! Port Impedance         50               0                50               0                
2.56                           0.42761830164157 39.729167310409  0.903385575828455 -50.197342730109 0.903385575828455 -50.197342730109 0.42761830164157 39.729167310409  
! Gamma         0                0                0                0                
! Port Impedance         50               0                50               0                
2.58                           0.429752129500433 39.3849357390625 0.902372689637614 -50.5419617241549 0.902372689637614 -50.541961724155 0.429752129500433 39.3849357390625 
! Gamma         0                0                0                0                
! Port Impedance         50               0                50               0                
2.6                            0.431865685513151 39.0414716095324 0.90136334706591 -50.8858100526491 0.90136334706591 -50.8858100526491 0.431865685513151 39.0414716095324 
! Gamma         0                0                0                0                
! Port Impedance         50               0                50               0                
2.62                           0.43395901996904 38.6987713823124 0.900357678026229 -51.228891326608 0.900357678026229 -51.228891326608 0.43395901996904 38.6987713823124 
! Gamma         0                0                0                0                
! Port Impedance         50               0                50               0                
2.64                           0.436032184377281 38.3568314272132 0.899355810548316 -51.5712092458793 0.899355810548316 -51.5712092458793 0.436032184377281 38.3568314272132 
! Gamma         0                0                0                0                
! Port Impedance         50               0                50               0                
2.66                           0.438085231416227 38.0156480252556 0.898357870784979 -51.9127675973134 0.898357870784979 -51.9127675973134 0.438085231416227 38.0156480252555 
! Gamma         0                0                0                0                
! Port Impedance         50               0                50               0                
2.68                           0.440118214883391 37.6752173705432 0.897363983019022 -52.2535702529525 0.897363983019022 -52.2535702529525 0.440118214883392 37.6752173705432 
! Gamma         0                0                0                0                
! Port Impedance         50               0                50               0                
2.7                            0.442131189646133 37.335535572116  0.896374269670847 -52.5936211682367 0.896374269670847 -52.5936211682367 0.442131189646133 37.335535572116  
! Gamma         0                0                0                0                
! Port Impedance         50               0                50               0                
2.72                           0.444124211593039 36.9965986557831 0.895388851306733 -52.9329243802282 0.895388851306733 -52.9329243802282 0.444124211593039 36.9965986557831 
! Gamma         0                0                0                0                
! Port Impedance         50               0                50               0                
2.74                           0.446097337586011 36.6584025659344 0.894407846647738 -53.2714840058537 0.894407846647738 -53.2714840058538 0.446097337586011 36.6584025659344 
! Gamma         0                0                0                0                
! Port Impedance         50               0                50               0                
2.76                           0.44805062541307 36.3209431673316 0.893431372579213 -53.6093042401668 0.893431372579213 -53.6093042401668 0.44805062541307 36.3209431673316 
! Gamma         0                0                0                0                
! Port Impedance         50               0                50               0                
2.78                           0.449984133741874 35.9842162468781 0.892459544160901 -53.9463893546277 0.892459544160901 -53.9463893546277 0.449984133741874 35.9842162468781 
! Gamma         0                0                0                0                
! Port Impedance         50               0                50               0                
2.8                            0.451897922073962 35.6482175153662 0.891492474637586 -54.282743695405 0.891492474637586 -54.282743695405 0.451897922073962 35.6482175153661 
! Gamma         0                0                0                0                
! Port Impedance         50               0                50               0                
2.82                           0.453792050699721 35.3129426092029 0.890530275450281 -54.6183716816957 0.890530275450282 -54.6183716816957 0.453792050699721 35.3129426092029 
! Gamma         0                0                0                0                
! Port Impedance         50               0                50               0                
2.84                           0.455666580654082 34.9783870921138 0.889573056247922 -54.9532778040667 0.889573056247922 -54.9532778040667 0.455666580654082 34.9783870921138 
! Gamma         0                0                0                0                
! Port Impedance         50               0                50               0                
2.86                           0.457521573672947 34.644546456824  0.888620924899538 -55.2874666228168 0.888620924899538 -55.2874666228168 0.457521573672947 34.644546456824  
! Gamma         0                0                0                0                
! Port Impedance         50               0                50               0                
2.88                           0.459357092150352 34.3114161267159 0.887673987506897 -55.6209427663596 0.887673987506897 -55.6209427663596 0.459357092150352 34.3114161267159 
! Gamma         0                0                0                0                
! Port Impedance         50               0                50               0                
2.9                            0.461173199096352 33.9789914574655 0.886732348417571 -55.9537109296278 0.886732348417571 -55.9537109296278 0.461173199096352 33.9789914574655 
! Gamma         0                0                0                0                
! Port Impedance         50               0                50               0                
2.92                           0.462969958095656 33.647267738654  0.885796110238424 -56.2857758724991 0.885796110238424 -56.2857758724991 0.462969958095656 33.647267738654  
! Gamma         0                0                0                0                
! Port Impedance         50               0                50               0                
2.94                           0.464747433266978 33.3162401953576 0.884865373849498 -56.6171424182441 0.884865373849498 -56.6171424182441 0.464747433266979 33.3162401953576 
! Gamma         0                0                0                0                
! Port Impedance         50               0                50               0                
2.96                           0.466505689223134 32.985903989713  0.883940238418247 -56.9478154519953 0.883940238418247 -56.9478154519953 0.466505689223134 32.9859039897131 
! Gamma         0                0                0                0                
! Port Impedance         50               0                50               0                
2.98                           0.468244791031856 32.65625422246   0.883020801414149 -57.2777999192397 0.883020801414149 -57.2777999192397 0.468244791031857 32.65625422246   
! Gamma         0                0                0                0                
! Port Impedance         50               0                50               0                
3                              0.469964804177343 32.3272859344602 0.882107158623619 -57.6071008243318 0.882107158623619 -57.6071008243318 0.469964804177343 32.3272859344603 
! Gamma         0                0                0                0                
! Port Impedance         50               0                50               0                
3.02                           0.471665794522535 31.9989941081927 0.881199404165243 -57.9357232290311 0.881199404165243 -57.9357232290311 0.471665794522535 31.9989941081927 
! Gamma         0                0                0                0                
! Port Impedance         50               0                50               0                
3.04                           0.473347828272109 31.6713736692249 0.880297630505299 -58.2636722510604 0.880297630505299 -58.2636722510603 0.473347828272109 31.6713736692249 
! Gamma         0                0                0                0                
! Port Impedance         50               0                50               0                
3.06                           0.475010971936191 31.3444194876616 0.879401928473537 -58.5909530626872 0.879401928473537 -58.5909530626872 0.475010971936191 31.3444194876616 
! Gamma         0                0                0                0                
! Port Impedance         50               0                50               0                
3.08                           0.476655292294788 31.018126379568  0.878512387279215 -58.9175708893287 0.878512387279215 -58.9175708893287 0.476655292294788 31.018126379568  
! Gamma         0                0                0                0                
! Port Impedance         50               0                50               0                
3.1                            0.478280856362924 30.6924891083711 0.877629094527363 -59.2435310081782 0.877629094527363 -59.2435310081782 0.478280856362924 30.6924891083711 
! Gamma         0                0                0                0                
! Port Impedance         50               0                50               0                
3.12                           0.479887731356484 30.3675023862359 0.876752136235254 -59.568838746855 0.876752136235254 -59.568838746855 0.479887731356484 30.3675023862359 
! Gamma         0                0                0                0                
! Port Impedance         50               0                50               0                
3.14                           0.481475984658759 30.0431608754185 0.875881596849076 -59.893499482077 0.875881596849076 -59.893499482077 0.48147598465876 30.0431608754185 
! Gamma         0                0                0                0                
! Port Impedance         50               0                50               0                
3.16                           0.483045683787687 29.7194591895956 0.875017559260775 -60.2175186383559 0.875017559260774 -60.2175186383559 0.483045683787688 29.7194591895956 
! Gamma         0                0                0                0                
! Port Impedance         50               0                50               0                
3.18                           0.484596896363774 29.3963918951702 0.874160104825059 -60.5409016867155 0.874160104825059 -60.5409016867155 0.484596896363774 29.3963918951702 
! Gamma         0                0                0                0                
! Port Impedance         50               0                50               0                
3.2                            0.486129690078706 29.0739535125538 0.873309313376548 -60.8636541434322 0.873309313376548 -60.8636541434322 0.486129690078706 29.0739535125538 
! Gamma         0                0                0                0                
! Port Impedance         50               0                50               0                
3.22                           0.487644132664636 28.7521385174252 0.872465263247051 -61.1857815687989 0.872465263247052 -61.1857815687989 0.487644132664635 28.7521385174252 
! Gamma         0                0                0                0                
! Port Impedance         50               0                50               0                
3.24                           0.489140291864131 28.4309413419656 0.871628031282951 -61.507289565911 0.871628031282951 -61.507289565911 0.489140291864131 28.4309413419656 
! Gamma         0                0                0                0                
! Port Impedance         50               0                50               0                
3.26                           0.490618235400796 28.1103563760712 0.87079769286269 -61.8281837794751 0.870797692862691 -61.8281837794752 0.490618235400796 28.1103563760712 
! Gamma         0                0                0                0                
! Port Impedance         50               0                50               0                
3.28                           0.492078030950537 27.7903779685413 0.869974321914344 -62.1484698946404 0.869974321914344 -62.1484698946404 0.492078030950537 27.7903779685413 
! Gamma         0                0                0                0                
! Port Impedance         50               0                50               0                
3.3                            0.493519746113483 27.471000428245  0.86915799093325 -62.468153635852 0.86915799093325 -62.468153635852 0.493519746113483 27.4710004282449 
! Gamma         0                0                0                0                
! Port Impedance         50               0                50               0                
3.32                           0.494943448386539 27.1522180252635 0.868348770999707 -62.7872407657273 0.868348770999707 -62.7872407657273 0.494943448386538 27.1522180252635 
! Gamma         0                0                0                0                
! Port Impedance         50               0                50               0                
3.34                           0.496349205136576 26.8340249920107 0.867546731796704 -63.1057370839534 0.867546731796704 -63.1057370839534 0.496349205136576 26.8340249920107 
! Gamma         0                0                0                0                
! Port Impedance         50               0                50               0                
3.36                           0.497737083574242 26.5164155243307 0.866751941627684 -63.4236484262079 0.866751941627684 -63.4236484262079 0.497737083574242 26.5164155243307 
! Gamma         0                0                0                0                
! Port Impedance         50               0                50               0                
3.38                           0.49910715072839 26.1993837825724 0.865964467434328 -63.7409806631004 0.865964467434328 -63.7409806631004 0.49910715072839 26.1993837825724 
! Gamma         0                0                0                0                
! Port Impedance         50               0                50               0                
3.4                            0.500459473421108 25.8829238926433 0.86518437481433 -64.0577396991363 0.86518437481433 -64.0577396991363 0.500459473421108 25.8829238926433 
! Gamma         0                0                0                0                
! Port Impedance         50               0                50               0                
3.42                           0.501794118243354 25.5670299470395 0.864411728039183 -64.3739314717025 0.864411728039183 -64.3739314717025 0.501794118243354 25.5670299470395 
! Gamma         0                0                0                0                
! Port Impedance         50               0                50               0                
3.44                           0.503111151531177 25.2516960058546 0.863646590071929 -64.6895619500736 0.863646590071929 -64.6895619500736 0.503111151531177 25.2516960058546 
! Gamma         0                0                0                0                
! Port Impedance         50               0                50               0                
3.46                           0.504410639342519 24.9369160977671 0.862889022584897 -65.0046371344401 0.862889022584897 -65.0046371344401 0.504410639342519 24.9369160977671 
! Gamma         0                0                0                0                
! Port Impedance         50               0                50               0                
3.48                           0.505692647434587 24.6226842210059 0.862139085977386 -65.3191630549576 0.862139085977386 -65.3191630549576 0.505692647434586 24.6226842210059 
! Gamma         0                0                0                0                
! Port Impedance         50               0                50               0                
3.5                            0.506957241241798 24.3089943442945 0.861396839393311 -65.6331457708165 0.861396839393311 -65.6331457708165 0.506957241241798 24.3089943442944 
! Gamma         0                0                0                0                
! Port Impedance         50               0                50               0                
3.52                           0.508204485854265 23.9958404077741 0.860662340738778 -65.9465913693327 0.860662340738778 -65.9465913693327 0.508204485854265 23.9958404077741 
! Gamma         0                0                0                0                
! Port Impedance         50               0                50               0                
3.54                           0.509434445996842 23.6832163239063 0.859935646699604 -66.2595059650585 0.859935646699604 -66.2595059650585 0.509434445996842 23.6832163239063 
! Gamma         0                0                0                0                
! Port Impedance         50               0                50               0                
3.56                           0.510647186008687 23.3711159783545 0.859216812758743 -66.5718956989142 0.859216812758743 -66.5718956989142 0.510647186008687 23.3711159783545 
! Gamma         0                0                0                0                
! Port Impedance         50               0                50               0                
3.58                           0.511842769823379 23.059533230845  0.858505893213642 -66.8837667373391 0.858505893213642 -66.8837667373392 0.511842769823379 23.059533230845  
! Gamma         0                0                0                0                
! Port Impedance         50               0                50               0                
3.6                            0.513021260949527 22.7484619160086 0.857802941193492 -67.195125271463 0.857802941193492 -67.195125271463 0.513021260949527 22.7484619160086 
! Gamma         0                0                0                0                
! Port Impedance         50               0                50               0                
3.62                           0.514182722451903 22.4378958442011 0.857108008676376 -67.5059775162965 0.857108008676376 -67.5059775162965 0.514182722451904 22.4378958442012 
! Gamma         0                0                0                0                
! Port Impedance         50               0                50               0                
3.64                           0.515327216933074 22.1278288023054 0.856421146506314 -67.8163297099417 0.856421146506314 -67.8163297099417 0.515327216933074 22.1278288023054 
! Gamma         0                0                0                0                
! Port Impedance         50               0                50               0                
3.66                           0.51645480651552 21.8182545545129 0.855742404410181 -68.1261881128211 0.855742404410181 -68.1261881128211 0.51645480651552 21.8182545545129 
! Gamma         0                0                0                0                
! Port Impedance         50               0                50               0                
3.68                           0.517565552824237 21.5091668430867 0.855071831014511 -68.4355590069258 0.855071831014511 -68.4355590069258 0.517565552824238 21.5091668430867 
! Gamma         0                0                0                0                
! Port Impedance         50               0                50               0                
3.7                            0.518659516969816 21.2005593891053 0.854409473862157 -68.7444486950823 0.854409473862157 -68.7444486950823 0.518659516969816 21.2005593891053 
! Gamma         0                0                0                0                
! Port Impedance         50               0                50               0                
3.72                           0.51973675953198 20.8924258931878 0.853755379428821 -69.0528635002377 0.853755379428821 -69.0528635002377 0.51973675953198 20.8924258931878 
! Gamma         0                0                0                0                
! Port Impedance         50               0                50               0                
3.74                           0.520797340543578 20.5847600362009 0.85310959313944 -69.3608097647629 0.853109593139441 -69.3608097647629 0.520797340543578 20.5847600362009 
! Gamma         0                0                0                0                
! Port Impedance         50               0                50               0                
3.76                           0.52184131947503 20.2775554799469 0.852472159384415 -69.668293849774 0.852472159384416 -69.668293849774 0.521841319475029 20.277555479947  
! Gamma         0                0                0                0                
! Port Impedance         50               0                50               0                
3.78                           0.522868755219202 19.9708058678352 0.851843121535691 -69.9753221344712 0.851843121535691 -69.9753221344712 0.522868755219202 19.9708058678351 
! Gamma         0                0                0                0                
! Port Impedance         50               0                50               0                
3.8                            0.523879706076716 19.6645048255344 0.851222521962669 -70.2819010154947 0.851222521962669 -70.2819010154947 0.523879706076716 19.6645048255344 
! Gamma         0                0                0                0                
! Port Impedance         50               0                50               0                
3.82                           0.524874229741673 19.3586459616092 0.850610402047958 -70.5880369062983 0.850610402047958 -70.5880369062983 0.524874229741673 19.3586459616092 
! Gamma         0                0                0                0                
! Port Impedance         50               0                50               0                
3.84                           0.525852383287793 19.0532228681382 0.850006802202952 -70.8937362365397 0.850006802202952 -70.8937362365397 0.525852383287793 19.0532228681382 
! Gamma         0                0                0                0                
! Port Impedance         50               0                50               0                
3.86                           0.526814223154955 18.7482291213159 0.849411761883229 -71.199005451487 0.849411761883229 -71.199005451487 0.526814223154955 18.7482291213159 
! Gamma         0                0                0                0                
! Port Impedance         50               0                50               0                
3.88                           0.527759805136128 18.4436582820383 0.848825319603769 -71.5038510114421 0.848825319603769 -71.5038510114421 0.527759805136128 18.4436582820383 
! Gamma         0                0                0                0                
! Port Impedance         50               0                50               0                
3.9                            0.528689184364697 18.1395038964716 0.848247512953992 -71.8082793911797 0.848247512953992 -71.8082793911797 0.528689184364697 18.1395038964716 
! Gamma         0                0                0                0                
! Port Impedance         50               0                50               0                
3.92                           0.529602415302152 17.8357594966054 0.847678378612602 -72.1122970794023 0.847678378612603 -72.1122970794023 0.529602415302152 17.8357594966054 
! Gamma         0                0                0                0                
! Port Impedance         50               0                50               0                
3.94                           0.530499551726159 17.53241860079   0.84711795236224 -72.415910578211 0.84711795236224 -72.415910578211 0.530499551726159 17.53241860079   
! Gamma         0                0                0                0                
! Port Impedance         50               0                50               0                
3.96                           0.531380646718983 17.2294747142587 0.846566269103936 -72.7191264025905 0.846566269103936 -72.7191264025905 0.531380646718983 17.2294747142587 
! Gamma         0                0                0                0                
! Port Impedance         50               0                50               0                
3.98                           0.53224575265627 16.9269213296337 0.846023362871368 -73.0219510799108 0.846023362871368 -73.0219510799108 0.53224575265627 16.9269213296337 
! Gamma         0                0                0                0                
! Port Impedance         50               0                50               0                
4                              0.533094921196169 16.624751927419  0.845489266844912 -73.3243911494417 0.845489266844912 -73.3243911494417 0.533094921196169 16.624751927419  
! Gamma         0                0                0                0                
! Port Impedance         50               0                50               0                
4.02                           0.533928203268792 16.3229599764769 0.844964013365488 -73.6264531618834 0.844964013365488 -73.6264531618834 0.533928203268793 16.3229599764769 
! Gamma         0                0                0                0                
! Port Impedance         50               0                50               0                
4.04                           0.534745649066006 16.0215389344913 0.844447633948194 -73.9281436789101 0.844447633948194 -73.9281436789101 0.534745649066006 16.0215389344913 
! Gamma         0                0                0                0                
! Port Impedance         50               0                50               0                
4.06                           0.535547308031542 15.7204822484168 0.84394015929573 -74.229469272728 0.84394015929573 -74.229469272728 0.535547308031542 15.7204822484168 
! Gamma         0                0                0                0                
! Port Impedance         50               0                50               0                
4.08                           0.536333228851425 15.4197833549135 0.843441619311607 -74.530436525647 0.843441619311607 -74.530436525647 0.536333228851425 15.4197833549135 
! Gamma         0                0                0                0                
! Port Impedance         50               0                50               0                
4.1                            0.537103459444697 15.1194356807688 0.842952043113136 -74.8310520296656 0.842952043113136 -74.8310520296656 0.537103459444697 15.1194356807688 
! Gamma         0                0                0                0                
! Port Impedance         50               0                50               0                
4.12                           0.537858046954461 14.8194326433061 0.842471459044198 -75.1313223860685 0.842471459044198 -75.1313223860685 0.537858046954461 14.819432643306  
! Gamma         0                0                0                0                
! Port Impedance         50               0                50               0                
4.14                           0.538597037739197 14.5197676507798 0.841999894687799 -75.4312542050381 0.8419998946878  -75.4312542050381 0.538597037739197 14.5197676507798 
! Gamma         0                0                0                0                
! Port Impedance         50               0                50               0                
4.16                           0.539320477364373 14.2204341027588 0.841537376878389 -75.7308541052769 0.841537376878389 -75.7308541052769 0.539320477364373 14.2204341027588 
! Gamma         0                0                0                0                
! Port Impedance         50               0                50               0                
4.18                           0.540028410594333 13.9214253904966 0.841083931713963 -76.0301287136442 0.841083931713962 -76.0301287136442 0.540028410594333 13.9214253904966 
! Gamma         0                0                0                0                
! Port Impedance         50               0                50               0                
4.2                            0.540720881384457 13.6227348972895 0.840639584567933 -76.3290846648026 0.840639584567933 -76.3290846648026 0.540720881384457 13.6227348972894 
! Gamma         0                0                0                0                
! Port Impedance         50               0                50               0                
4.22                           0.541397932873584 13.3243559988235 0.840204360100772 -76.6277286008782 0.840204360100771 -76.6277286008782 0.541397932873583 13.3243559988235 
! Gamma         0                0                0                0                
! Port Impedance         50               0                50               0                
4.24                           0.542059607376695 13.0262820635093 0.839778282271422 -76.9260671711308 0.839778282271422 -76.9260671711308 0.542059607376696 13.0262820635093 
! Gamma         0                0                0                0                
! Port Impedance         50               0                50               0                
4.26                           0.542705946377854 12.7285064528055 0.839361374348476 -77.2241070316363 0.839361374348476 -77.2241070316363 0.542705946377854 12.7285064528055 
! Gamma         0                0                0                0                
! Port Impedance         50               0                50               0                
4.28                           0.543336990523379 12.4310225215316 0.838953658921121 -77.5218548449793 0.838953658921121 -77.5218548449793 0.543336990523379 12.4310225215316 
! Gamma         0                0                0                0                
! Port Impedance         50               0                50               0                
4.3                            0.54395277961527 12.1338236181698 0.838555157909853 -77.8193172799572 0.838555157909853 -77.8193172799572 0.54395277961527 12.1338236181698 
! Gamma         0                0                0                0                
! Port Impedance         50               0                50               0                
4.32                           0.544553352604863 11.8369030851563 0.838165892576943 -78.1165010112934 0.838165892576943 -78.1165010112934 0.544553352604863 11.8369030851564 
! Gamma         0                0                0                0                
! Port Impedance         50               0                50               0                
4.34                           0.545138747586712 11.5402542591628 0.837785883536683 -78.4134127193622 0.837785883536683 -78.4134127193622 0.545138747586711 11.5402542591629 
! Gamma         0                0                0                0                
! Port Impedance         50               0                50               0                
4.36                           0.545709001792693 11.2438704713672 0.837415150765382 -78.7100590899224 0.837415150765382 -78.7100590899224 0.545709001792693 11.2438704713672 
! Gamma         0                0                0                0                
! Port Impedance         50               0                50               0                
4.38                           0.54626415158633 10.9477450477154 0.837053713611122 -79.0064468138611 0.837053713611122 -79.0064468138611 0.54626415158633 10.9477450477154 
! Gamma         0                0                0                0                
! Port Impedance         50               0                50               0                
4.4                            0.546804232457324 10.6518713091733 0.836701590803285 -79.3025825869466 0.836701590803285 -79.3025825869466 0.546804232457324 10.6518713091733 
! Gamma         0                0                0                0                
! Port Impedance         50               0                50               0                
4.42                           0.547329279016296 10.3562425719699 0.836358800461826 -79.5984731095905 0.836358800461827 -79.5984731095905 0.547329279016296 10.3562425719699 
! Gamma         0                0                0                0                
! Port Impedance         50               0                50               0                
4.44                           0.547839324989728 10.060852147831  0.836025360106318 -79.8941250866189 0.836025360106318 -79.8941250866189 0.547839324989728 10.060852147831  
! Gamma         0                0                0                0                
! Port Impedance         50               0                50               0                
4.46                           0.548334403215096 9.76569334420491 0.835701286664742 -80.1895452270514 0.835701286664742 -80.1895452270514 0.548334403215096 9.76569334420491 
! Gamma         0                0                0                0                
! Port Impedance         50               0                50               0                
4.48                           0.548814545636201 9.47075946447898 0.835386596482043 -80.4847402438896 0.835386596482043 -80.4847402438896 0.548814545636201 9.47075946447898 
! Gamma         0                0                0                0                
! Port Impedance         50               0                50               0                
4.5                            0.549279783298685 9.17604380818879 0.835081305328444 -80.7797168539125 0.835081305328443 -80.7797168539125 0.549279783298685 9.1760438081888  
! Gamma         0                0                0                0                
! Port Impedance         50               0                50               0                
4.52                           0.54973014634572 8.88153967121891 0.834785428407505 -81.0744817774807 0.834785428407505 -81.0744817774807 0.549730146345721 8.8815396712189  
! Gamma         0                0                0                0                
! Port Impedance         50               0                50               0                
4.54                           0.550165664013891 8.58724034599624 0.834498980363956 -81.3690417383475 0.834498980363956 -81.3690417383475 0.550165664013891 8.58724034599624 
! Gamma         0                0                0                0                
! Port Impedance         50               0                50               0                
4.56                           0.550586364629234 8.29313912167597 0.83422197529127 -81.6634034634777 0.83422197529127 -81.6634034634777 0.550586364629233 8.29313912167597 
! Gamma         0                0                0                0                
! Port Impedance         50               0                50               0                
4.58                           0.550992275603455 7.99922928432046 0.833954426738998 -81.9575736828733 0.833954426738998 -81.9575736828733 0.550992275603455 7.99922928432046 
! Gamma         0                0                0                0                
! Port Impedance         50               0                50               0                
4.6                            0.551383423430315 7.70550411707099 0.83369634771986 -82.2515591294062 0.833696347719859 -82.2515591294062 0.551383423430314 7.705504117071   
! Gamma         0                0                0                0                
! Port Impedance         50               0                50               0                
4.62                           0.551759833682159 7.41195690031331 0.833447750716588 -82.5453665386573 0.833447750716588 -82.5453665386573 0.551759833682159 7.41195690031331 
! Gamma         0                0                0                0                
! Port Impedance         50               0                50               0                
4.64                           0.552121531006629 7.11858091183641 0.833208647688527 -82.8390026487622 0.833208647688527 -82.8390026487622 0.552121531006629 7.11858091183641 
! Gamma         0                0                0                0                
! Port Impedance         50               0                50               0                
4.66                           0.552468539123505 6.82536942698544 0.832979050077988 -83.1324742002625 0.832979050077987 -83.1324742002625 0.552468539123505 6.82536942698544 
! Gamma         0                0                0                0                
! Port Impedance         50               0                50               0                
4.68                           0.552800880821713 6.53231571880851 0.832758968816352 -83.4257879359638 0.832758968816352 -83.4257879359638 0.552800880821713 6.53231571880851 
! Gamma         0                0                0                0                
! Port Impedance         50               0                50               0                
4.7                            0.553118577956471 6.23941305819813 0.83254841432994 -83.7189506007982 0.832548414329939 -83.7189506007982 0.553118577956471 6.23941305819812 
! Gamma         0                0                0                0                
! Port Impedance         50               0                50               0                
4.72                           0.553421651446584 5.94665471402694 0.83234739654562 -84.0119689416934 0.83234739654562 -84.0119689416934 0.553421651446584 5.94665471402694 
! Gamma         0                0                0                0                
! Port Impedance         50               0                50               0                
4.74                           0.553710121271876 5.6540339532785  0.832155924896184 -84.304849707446 0.832155924896184 -84.304849707446 0.553710121271876 5.65403395327851 
! Gamma         0                0                0                0                
! Port Impedance         50               0                50               0                
4.76                           0.553984006470759 5.36154404117316 0.831974008325471 -84.5975996486   0.831974008325471 -84.5975996486   0.553984006470759 5.36154404117317 
! Gamma         0                0                0                0                
! Port Impedance         50               0                50               0                
4.78                           0.554243325137941 5.06917824128908 0.831801655293242 -84.8902255173301 0.831801655293241 -84.8902255173301 0.554243325137941 5.06917824128908 
! Gamma         0                0                0                0                
! Port Impedance         50               0                50               0                
4.8                            0.554488094422262 4.77692981567895 0.831638873779814 -85.1827340673292 0.831638873779814 -85.1827340673292 0.554488094422263 4.77692981567895 
! Gamma         0                0                0                0                
! Port Impedance         50               0                50               0                
4.82                           0.554718330524663 4.4847920249825  0.831485671290447 -85.4751320537007 0.831485671290447 -85.4751320537007 0.554718330524663 4.4847920249825  
! Gamma         0                0                0                0                
! Port Impedance         50               0                50               0                
4.84                           0.554934048696275 4.19275812853509 0.831342054859481 -85.7674262328532 0.831342054859481 -85.7674262328532 0.554934048696276 4.19275812853509 
! Gamma         0                0                0                0                
! Port Impedance         50               0                50               0                
4.86                           0.555135263236649 3.90082138447234 0.83120803105423 -86.0596233624014 0.83120803105423 -86.0596233624014 0.555135263236648 3.90082138447234 
! Gamma         0                0                0                0                
! Port Impedance         50               0                50               0                
4.88                           0.555321987492083 3.6089750498316  0.831083605978633 -86.3517302010678 0.831083605978633 -86.3517302010678 0.555321987492083 3.6089750498316  
! Gamma         0                0                0                0                
! Port Impedance         50               0                50               0                
4.9                            0.5554942338541  3.31721238064994 0.830968785276648 -86.6437535085896 0.830968785276648 -86.6437535085896 0.5554942338541  3.31721238064994 
! Gamma         0                0                0                0                
! Port Impedance         50               0                50               0                
4.92                           0.555652013758021 3.02552663205915 0.830863574135416 -86.9357000456281 0.830863574135415 -86.9357000456281 0.555652013758021 3.02552663205915 
! Gamma         0                0                0                0                
! Port Impedance         50               0                50               0                
4.94                           0.555795337681667 2.73391105837795 0.83076797728816 -87.2275765736803 0.83076797728816 -87.2275765736803 0.555795337681667 2.73391105837795 
! Gamma         0                0                0                0                
! Port Impedance         50               0                50               0                
4.96                           0.555924215144174 2.44235891320171 0.830681999016858 -87.5193898549938 0.830681999016858 -87.5193898549938 0.555924215144174 2.4423589132017  
! Gamma         0                0                0                0                
! Port Impedance         50               0                50               0                
4.98                           0.556038654704923 2.15086344948981 0.830605643154653 -87.8111466524837 0.830605643154653 -87.8111466524837 0.556038654704923 2.15086344948981 
! Gamma         0                0                0                0                
! Port Impedance         50               0                50               0                
5                              0.556138663962581 1.85941791965083 0.830538913088026 -88.102853729652 0.830538913088026 -88.102853729652 0.556138663962581 1.85941791965083 
! Gamma         0                0                0                0                
! Port Impedance         50               0                50               0                
5.02                           0.556224249554255 1.56801557562594 0.830481811758721 -88.3945178505079 0.83048181175872 -88.3945178505079 0.556224249554255 1.56801557562594 
! Gamma         0                0                0                0                
! Port Impedance         50               0                50               0                
5.04                           0.556295417154761 1.27664966897063 0.830434341665425 -88.6861457794912 0.830434341665425 -88.6861457794912 0.556295417154762 1.27664966897063 
! Gamma         0                0                0                0                
! Port Impedance         50               0                50               0                
5.06                           0.556352171475994 0.985313450935138 0.830396504865199 -88.9777442813957 0.830396504865199 -88.9777442813957 0.556352171475994 0.985313450935138 
! Gamma         0                0                0                0                
! Port Impedance         50               0                50               0                
5.08                           0.556394516266413 0.694000172543442 0.830368302974668 -89.2693201212949 0.830368302974668 -89.2693201212949 0.556394516266413 0.694000172543443 
! Gamma         0                0                0                0                
! Port Impedance         50               0                50               0                
5.1                            0.556422454310635 0.402703084671667 0.830349737170961 -89.560880064468 0.830349737170961 -89.560880064468 0.556422454310635 0.402703084671667 
! Gamma         0                0                0                0                
! Port Impedance         50               0                50               0                
5.12                           0.556435987429132 0.111415438125425 0.830340808192405 -89.8524308763269 0.830340808192404 -89.8524308763269 0.556435987429133 0.111415438125425 
! Gamma         0                0                0                0                
! Port Impedance         50               0                50               0                
5.14                           0.556435116478046 -0.179869516283067 0.830341516338976 -90.1439793223439 0.830341516338977 -90.1439793223439 0.556435116478047 -0.179869516283067 
! Gamma         0                0                0                0                
! Port Impedance         50               0                50               0                
5.16                           0.556419841349096 -0.471158527658316 0.830351861472508 -90.4355321679791 0.830351861472508 -90.4355321679791 0.556419841349096 -0.471158527658316 
! Gamma         0                0                0                0                
! Port Impedance         50               0                50               0                
5.18                           0.556390160969602 -0.762458344944832 0.83037184301664 -90.7270961786086 0.83037184301664 -90.7270961786086 0.556390160969603 -0.762458344944832 
! Gamma         0                0                0                0                
! Port Impedance         50               0                50               0                
5.2                            0.55634607330262 -1.05377571685012 0.830401459956539 -91.018678119452 0.830401459956539 -91.018678119452 0.55634607330262 -1.05377571685011 
! Gamma         0                0                0                0                
! Port Impedance         50               0                50               0                
5.22                           0.556287575347173 -1.34511739176747 0.830440710838362 -91.3102847555   0.830440710838362 -91.3102847555   0.556287575347173 -1.34511739176747 
! Gamma         0                0                0                0                
! Port Impedance         50               0                50               0                
5.24                           0.556214663138597 -1.63649011769786 0.830489593768475 -91.6019228514407 0.830489593768476 -91.6019228514407 0.556214663138597 -1.63649011769786 
! Gamma         0                0                0                0                
! Port Impedance         50               0                50               0                
5.26                           0.556127331748997 -1.92790064217111 0.830548106412433 -91.8935991715856 0.830548106412434 -91.8935991715856 0.556127331748997 -1.92790064217111 
! Gamma         0                0                0                0                
! Port Impedance         50               0                50               0                
5.28                           0.556025575287802 -2.21935571216594 0.830616245993705 -92.1853204797949 0.830616245993706 -92.1853204797949 0.556025575287802 -2.21935571216594 
! Gamma         0                0                0                0                
! Port Impedance         50               0                50               0                
5.3                            0.555909386902444 -2.51086207402848 0.830694009292159 -92.4770935394001 0.830694009292159 -92.4770935394001 0.555909386902444 -2.51086207402848 
! Gamma         0                0                0                0                
! Port Impedance         50               0                50               0                
5.32                           0.55577875877913 -2.80242647338952 0.830781392642298 -92.7689251131269 0.830781392642297 -92.7689251131269 0.55577875877913 -2.80242647338952 
! Gamma         0                0                0                0                
! Port Impedance         50               0                50               0                
5.34                           0.555633682143739 -3.09405565507965 0.830878391931253 -93.0608219630148 0.830878391931253 -93.0608219630148 0.555633682143739 -3.09405565507965 
! Gamma         0                0                0                0                
! Port Impedance         50               0                50               0                
5.36                           0.555474147262827 -3.38575636304263 0.83098500259653 -93.3527908503359 0.83098500259653 -93.3527908503359 0.555474147262827 -3.38575636304263 
! Gamma         0                0                0                0                
! Port Impedance         50               0                50               0                
5.38                           0.55530014344474 -3.67753534024629 0.831101219623507 -93.6448385355106 0.831101219623507 -93.6448385355106 0.55530014344474 -3.67753534024629 
! Gamma         0                0                0                0                
! Port Impedance         50               0                50               0                
5.4                            0.55511165904085 -3.96939932859092 0.831227037542688 -93.9369717780213 0.831227037542688 -93.9369717780213 0.555111659040851 -3.96939932859092 
! Gamma         0                0                0                0                
! Port Impedance         50               0                50               0                
5.42                           0.554908681446903 -4.26135506881523 0.831362450426715 -94.2291973363237 0.831362450426715 -94.2291973363237 0.554908681446903 -4.26135506881523 
! Gamma         0                0                0                0                
! Port Impedance         50               0                50               0                
5.44                           0.554691197104483 -4.55340930039894 0.831507451887122 -94.5215219677547 0.831507451887122 -94.5215219677547 0.554691197104483 -4.55340930039894 
! Gamma         0                0                0                0                
! Port Impedance         50               0                50               0                
5.46                           0.554459191502599 -4.84556876146241 0.83166203507086 -94.8139524284373 0.83166203507086 -94.8139524284373 0.554459191502599 -4.84556876146241 
! Gamma         0                0                0                0                
! Port Impedance         50               0                50               0                
5.48                           0.554212649179394 -5.13784018866279 0.831826192656562 -95.1064954731824 0.831826192656562 -95.1064954731824 0.554212649179394 -5.13784018866279 
! Gamma         0                0                0                0                
! Port Impedance         50               0                50               0                
5.5                            0.553951553723974 -5.43023031708649 0.831999916850563 -95.3991578553868 0.831999916850564 -95.3991578553868 0.553951553723973 -5.43023031708649 
! Gamma         0                0                0                0                
! Port Impedance         50               0                50               0                
5.52                           0.553675887778365 -5.72274588013774 0.832183199382688 -95.6919463269276 0.832183199382688 -95.6919463269276 0.553675887778365 -5.72274588013774 
! Gamma         0                0                0                0                
! Port Impedance         50               0                50               0                
5.54                           0.5533856330396  -6.015393609423  0.832376031501775 -95.984867638052 0.832376031501775 -95.984867638052 0.5533856330396  -6.01539360942299 
! Gamma         0                0                0                0                
! Port Impedance         50               0                50               0                
5.56                           0.553080770261928 -6.30818023463097 0.832578403970965 -96.2779285372636 0.832578403970965 -96.2779285372636 0.553080770261928 -6.30818023463098 
! Gamma         0                0                0                0                
! Port Impedance         50               0                50               0                
5.58                           0.55276127925917 -6.60111248340804 0.83279030706274 -96.5711357712037 0.832790307062741 -96.5711357712037 0.55276127925917 -6.60111248340804 
! Gamma         0                0                0                0                
! Port Impedance         50               0                50               0                
5.6                            0.552427138907198 -6.89419708122888 0.833011730553719 -96.864496084528 0.833011730553719 -96.864496084528 0.552427138907197 -6.89419708122888 
! Gamma         0                0                0                0                
! Port Impedance         50               0                50               0                
5.62                           0.552078327146554 -7.18744075126174 0.833242663719206 -97.1580162197779 0.833242663719205 -97.1580162197779 0.552078327146554 -7.18744075126174 
! Gamma         0                0                0                0                
! Port Impedance         50               0                50               0                
5.64                           0.551714820985221 -7.48085021422869 0.833483095327487 -97.4517029172474 0.833483095327487 -97.4517029172474 0.55171482098522 -7.4808502142287 
! Gamma         0                0                0                0                
! Port Impedance         50               0                50               0                
5.66                           0.551336596501527 -7.77443218826003 0.833733013633898 -97.7455629148437 0.833733013633898 -97.7455629148437 0.551336596501527 -7.77443218826002 
! Gamma         0                0                0                0                
! Port Impedance         50               0                50               0                
5.68                           0.550943628847202 -8.068193388743  0.833992406374624 -98.0396029479427 0.833992406374624 -98.0396029479427 0.550943628847202 -8.06819338874299 
! Gamma         0                0                0                0                
! Port Impedance         50               0                50               0                
5.7                            0.550535892250585 -8.36214052816432 0.834261260760273 -98.333829749238 0.834261260760273 -98.333829749238 0.550535892250585 -8.36214052816431 
! Gamma         0                0                0                0                
! Port Impedance         50               0                50               0                
5.72                           0.550113360019986 -8.6562803159465 0.834539563469194 -98.6282500485843 0.834539563469194 -98.6282500485843 0.550113360019986 -8.6562803159465 
! Gamma         0                0                0                0                
! Port Impedance         50               0                50               0                
5.74                           0.549676004547208 -8.95061945827751 0.83482730064055 -98.9228705728337 0.83482730064055 -98.9228705728337 0.549676004547208 -8.95061945827752 
! Gamma         0                0                0                0                
! Port Impedance         50               0                50               0                
5.76                           0.549223797311228 -9.24516465793356 0.835124457867155 -99.2176980456662 0.835124457867154 -99.2176980456662 0.549223797311228 -9.24516465793356 
! Gamma         0                0                0                0                
! Port Impedance         50               0                50               0                
5.78                           0.548756708882046 -9.53992261409484 0.835431020188052 -99.5127391874121 0.835431020188052 -99.5127391874121 0.548756708882045 -9.53992261409485 
! Gamma         0                0                0                0                
! Port Impedance         50               0                50               0                
5.8                            0.548274708924706 -9.83490002215409 0.835746972080864 -99.8080007148683 0.835746972080864 -99.8080007148683 0.548274708924705 -9.83490002215409 
! Gamma         0                0                0                0                
! Port Impedance         50               0                50               0                
5.82                           0.547777766203487 -10.1301035735173 0.836072297453884 -100.103489341107 0.836072297453884 -100.103489341107 0.547777766203488 -10.1301035735173 
! Gamma         0                0                0                0                
! Port Impedance         50               0                50               0                
5.84                           0.547265848586281 -10.4255399553966 0.836406979637935 -100.399211775275 0.836406979637935 -100.399211775275 0.54726584858628 -10.4255399553966 
! Gamma         0                0                0                0                
! Port Impedance         50               0                50               0                
5.86                           0.546738923049138 -10.7212158505956 0.836751001377979 -100.695174722389 0.836751001377979 -100.695174722389 0.546738923049138 -10.7212158505956 
! Gamma         0                0                0                0                
! Port Impedance         50               0                50               0                
5.88                           0.546196955681023 -11.0171379372854 0.837104344824487 -100.991384883118 0.837104344824487 -100.991384883118 0.546196955681023 -11.0171379372853 
! Gamma         0                0                0                0                
! Port Impedance         50               0                50               0                
5.9                            0.545639911688741 -11.3133128887725 0.837466991524566 -101.287848953561 0.837466991524567 -101.287848953561 0.545639911688741 -11.3133128887725 
! Gamma         0                0                0                0                
! Port Impedance         50               0                50               0                
5.92                           0.545067755402077 -11.6097473732585 0.837838922412846 -101.584573625013 0.837838922412846 -101.584573625013 0.545067755402078 -11.6097473732585 
! Gamma         0                0                0                0                
! Port Impedance         50               0                50               0                
5.94                           0.544480450279133 -11.906448053589 0.83822011780212 -101.881565583727 0.83822011780212 -101.881565583727 0.544480450279133 -11.906448053589 
! Gamma         0                0                0                0                
! Port Impedance         50               0                50               0                
5.96                           0.543877958911868 -12.203421586995 0.838610557373754 -102.178831510657 0.838610557373754 -102.178831510657 0.543877958911868 -12.203421586995 
! Gamma         0                0                0                0                
! Port Impedance         50               0                50               0                
5.98                           0.543260243031859 -12.5006746248228 0.839010220167852 -102.476378081205 0.839010220167852 -102.476378081205 0.543260243031859 -12.5006746248228 
! Gamma         0                0                0                0                
! Port Impedance         50               0                50               0                
6                              0.542627263516277 -12.7982138122556 0.839419084573177 -102.774211964948 0.839419084573177 -102.774211964948 0.542627263516277 -12.7982138122556 
! Gamma         0                0                0                0                
! Port Impedance         50               0                50               0                
6.02                           0.541978980394087 -13.0960457880239 0.839837128316851 -103.072339825357 0.839837128316851 -103.072339825357 0.541978980394088 -13.0960457880238 
! Gamma         0                0                0                0                
! Port Impedance         50               0                50               0                
6.04                           0.541315352852478 -13.3941771841051 0.8402643284538  -103.370768319509 0.8402643284538  -103.370768319509 0.541315352852478 -13.3941771841051 
! Gamma         0                0                0                0                
! Port Impedance         50               0                50               0                
6.06                           0.540636339243527 -13.692614625414 0.840700661355973 -103.669504097787 0.840700661355973 -103.669504097787 0.540636339243527 -13.692614625414 
! Gamma         0                0                0                0                
! Port Impedance         50               0                50               0                
6.08                           0.539941897091113 -13.99136472948  0.84114610270133 -103.968553803565 0.84114610270133 -103.968553803565 0.539941897091113 -13.99136472948  
! Gamma         0                0                0                0                
! Port Impedance         50               0                50               0                
6.1                            0.539231983098066 -14.2904341061149 0.84160062746259 -104.267924072892 0.84160062746259 -104.267924072892 0.539231983098066 -14.2904341061149 
! Gamma         0                0                0                0                
! Port Impedance         50               0                50               0                
6.12                           0.538506553153582 -14.5898293570684 0.842064209895749 -104.567621534151 0.842064209895749 -104.567621534151 0.538506553153582 -14.5898293570684 
! Gamma         0                0                0                0                
! Port Impedance         50               0                50               0                
6.14                           0.53776556234089 -14.8895570756711 0.842536823528373 -104.86765280772 0.842536823528373 -104.86765280772 0.53776556234089 -14.8895570756711 
! Gamma         0                0                0                0                
! Port Impedance         50               0                50               0                
6.16                           0.537008964945194 -15.1896238464668 0.843018441147658 -105.168024505612 0.843018441147658 -105.168024505612 0.537008964945194 -15.1896238464668 
! Gamma         0                0                0                0                
! Port Impedance         50               0                50               0                
6.18                           0.536236714461881 -15.490036244831 0.843509034788264 -105.468743231106 0.843509034788264 -105.468743231106 0.536236714461881 -15.490036244831 
! Gamma         0                0                0                0                
! Port Impedance         50               0                50               0                
6.2                            0.535448763605016 -15.7908008365776 0.844008575719923 -105.769815578368 0.844008575719923 -105.769815578368 0.535448763605016 -15.7908008365776 
! Gamma         0                0                0                0                
! Port Impedance         50               0                50               0                
6.22                           0.534645064316117 -16.0919241775521 0.844517034434832 -106.071248132052 0.844517034434831 -106.071248132052 0.534645064316118 -16.0919241775521 
! Gamma         0                0                0                0                
! Port Impedance         50               0                50               0                
6.24                           0.53382556777324 -16.393412813212 0.845034380634811 -106.373047466899 0.845034380634811 -106.373047466899 0.53382556777324 -16.393412813212 
! Gamma         0                0                0                0                
! Port Impedance         50               0                50               0                
6.26                           0.53299022440034 -16.6952732781933 0.84556058321826 -106.67522014731 0.84556058321826 -106.67522014731 0.53299022440034 -16.6952732781933 
! Gamma         0                0                0                0                
! Port Impedance         50               0                50               0                
6.28                           0.532138983876971 -16.9975120958633 0.846095610266883 -106.977772726921 0.846095610266883 -106.977772726921 0.532138983876971 -16.9975120958633 
! Gamma         0                0                0                0                
! Port Impedance         50               0                50               0                
6.3                            0.531271795148279 -17.3001357778594 0.846639429032209 -107.280711748147 0.846639429032209 -107.280711748147 0.531271795148278 -17.3001357778594 
! Gamma         0                0                0                0                
! Port Impedance         50               0                50               0                
6.32                           0.530388606435328 -17.6031508236132 0.8471920059219  -107.584043741725 0.8471920059219  -107.584043741725 0.530388606435328 -17.6031508236132 
! Gamma         0                0                0                0                
! Port Impedance         50               0                50               0                
6.34                           0.529489365245764 -17.9065637198603 0.847753306485849 -107.88777522624 0.847753306485849 -107.88777522624 0.529489365245764 -17.9065637198603 
! Gamma         0                0                0                0                
! Port Impedance         50               0                50               0                
6.36                           0.528574018384802 -18.2103809401348 0.848323295402073 -108.19191270763 0.848323295402073 -108.19191270763 0.528574018384802 -18.2103809401348 
! Gamma         0                0                0                0                
! Port Impedance         50               0                50               0                
6.38                           0.527642511966579 -18.5146089442488 0.848901936462408 -108.496462678684 0.848901936462409 -108.496462678684 0.527642511966579 -18.5146089442488 
! Gamma         0                0                0                0                
! Port Impedance         50               0                50               0                
6.4                            0.526694791425848 -18.8192541777562 0.849489192558001 -108.801431618524 0.849489192558001 -108.801431618524 0.526694791425848 -18.8192541777562 
! Gamma         0                0                0                0                
! Port Impedance         50               0                50               0                
6.42                           0.525730801530043 -19.1243230714009 0.850085025664607 -109.106825992064 0.850085025664607 -109.106825992064 0.525730801530044 -19.1243230714009 
! Gamma         0                0                0                0                
! Port Impedance         50               0                50               0                
6.44                           0.524750486391712 -19.4298220405483 0.850689396827696 -109.412652249464 0.850689396827696 -109.412652249464 0.524750486391712 -19.4298220405483 
! Gamma         0                0                0                0                
! Port Impedance         50               0                50               0                
6.46                           0.523753789481332 -19.7357574846011 0.851302266147378 -109.718916825562 0.851302266147378 -109.718916825562 0.523753789481332 -19.7357574846011 
! Gamma         0                0                0                0                
! Port Impedance         50               0                50               0                
6.48                           0.522740653640509 -20.0421357863981 0.851923592763134 -110.025626139288 0.851923592763133 -110.025626139288 0.52274065364051 -20.0421357863981 
! Gamma         0                0                0                0                
! Port Impedance         50               0                50               0                
6.5                            0.521711021095582 -20.3489633115959 0.852553334838376 -110.332786593069 0.852553334838376 -110.332786593069 0.521711021095582 -20.3489633115959 
! Gamma         0                0                0                0                
! Port Impedance         50               0                50               0                
6.52                           0.520664833471621 -20.6562464080335 0.853191449544832 -110.640404572209 0.853191449544832 -110.640404572209 0.520664833471621 -20.6562464080335 
! Gamma         0                0                0                0                
! Port Impedance         50               0                50               0                
6.54                           0.519602031806846 -20.9639914050794 0.853837893046757 -110.948486444257 0.853837893046757 -110.948486444257 0.519602031806846 -20.9639914050794 
! Gamma         0                0                0                0                
! Port Impedance         50               0                50               0                
6.56                           0.518522556567472 -21.2722046129606 0.854492620484985 -111.257038558359 0.854492620484984 -111.257038558359 0.518522556567472 -21.2722046129606 
! Gamma         0                0                0                0                
! Port Impedance         50               0                50               0                
6.58                           0.517426347662974 -21.5808923220736 0.855155585960817 -111.566067244587 0.855155585960817 -111.566067244587 0.517426347662974 -21.5808923220736 
! Gamma         0                0                0                0                
! Port Impedance         50               0                50               0                
6.6                            0.516313344461804 -21.8900608022773 0.855826742519764 -111.875578813255 0.855826742519764 -111.875578813255 0.516313344461803 -21.8900608022773 
! Gamma         0                0                0                0                
! Port Impedance         50               0                50               0                
6.62                           0.515183485807546 -22.1997163021668 0.856506042135127 -112.185579554216 0.856506042135127 -112.185579554216 0.515183485807546 -22.1997163021668 
! Gamma         0                0                0                0                
! Port Impedance         50               0                50               0                
6.64                           0.514036710035539 -22.5098650483282 0.857193435691453 -112.496075736137 0.857193435691453 -112.496075736137 0.51403671003554 -22.5098650483282 
! Gamma         0                0                0                0                
! Port Impedance         50               0                50               0                
6.66                           0.512872954989963 -22.8205132445749 0.85788887296784 -112.807073605764 0.85788887296784 -112.807073605764 0.512872954989964 -22.8205132445749 
! Gamma         0                0                0                0                
! Port Impedance         50               0                50               0                
6.68                           0.511692158041393 -23.131667071163 0.858592302621125 -113.118579387158 0.858592302621126 -113.118579387158 0.511692158041393 -23.131667071163 
! Gamma         0                0                0                0                
! Port Impedance         50               0                50               0                
6.7                            0.510494256104854 -23.4433326839885 0.859303672168942 -113.430599280921 0.859303672168942 -113.430599280921 0.510494256104854 -23.4433326839885 
! Gamma         0                0                0                0                
! Port Impedance         50               0                50               0                
6.72                           0.509279185658352 -23.7555162137634 0.860022927972667 -113.743139463395 0.860022927972668 -113.743139463395 0.509279185658352 -23.7555162137633 
! Gamma         0                0                0                0                
! Port Impedance         50               0                50               0                
6.74                           0.508046882761925 -24.0682237651714 0.860750015220264 -114.056206085851 0.860750015220264 -114.056206085851 0.508046882761925 -24.0682237651714 
! Gamma         0                0                0                0                
! Port Impedance         50               0                50               0                
6.76                           0.506797283077193 -24.3814614160039 0.861484877909015 -114.369805273644 0.861484877909015 -114.369805273644 0.506797283077194 -24.3814614160039 
! Gamma         0                0                0                0                
! Port Impedance         50               0                50               0                
6.78                           0.505530321887438 -24.6952352162741 0.862227458828175 -114.683943125366 0.862227458828175 -114.683943125366 0.505530321887438 -24.6952352162741 
! Gamma         0                0                0                0                
! Port Impedance         50               0                50               0                
6.8                            0.504245934118207 -25.009551187311 0.862977699541535 -114.998625711964 0.862977699541534 -114.998625711964 0.504245934118207 -25.009551187311 
! Gamma         0                0                0                0                
! Port Impedance         50               0                50               0                
6.82                           0.502944054358457 -25.3244153208309 0.863735540369912 -115.313859075846 0.863735540369912 -115.313859075846 0.502944054358457 -25.3244153208309 
! Gamma         0                0                0                0                
! Port Impedance         50               0                50               0                
6.84                           0.501624616882255 -25.6398335779881 0.864500920373578 -115.62964922996 0.864500920373578 -115.62964922996 0.501624616882255 -25.6398335779881 
! Gamma         0                0                0                0                
! Port Impedance         50               0                50               0                
6.86                           0.500287555671024 -25.9558118884038 0.865273777334628 -115.946002156862 0.865273777334628 -115.946002156862 0.500287555671024 -25.9558118884038 
! Gamma         0                0                0                0                
! Port Impedance         50               0                50               0                
6.88                           0.498932804436362 -26.2723561491721 0.866054047739306 -116.262923807752 0.866054047739306 -116.262923807752 0.498932804436363 -26.272356149172 
! Gamma         0                0                0                0                
! Port Impedance         50               0                50               0                
6.9                            0.497560296643437 -26.5894722238443 0.866841666760294 -116.580420101495 0.866841666760294 -116.580420101495 0.497560296643437 -26.5894722238443 
! Gamma         0                0                0                0                
! Port Impedance         50               0                50               0                
6.92                           0.496169965534957 -26.9071659413906 0.867636568238977 -116.898496923624 0.867636568238977 -116.898496923624 0.496169965534957 -26.9071659413906 
! Gamma         0                0                0                0                
! Port Impedance         50               0                50               0                
6.94                           0.494761744155748 -27.2254430951388 0.868438684667695 -117.21716012531 0.868438684667695 -117.21716012531 0.494761744155748 -27.2254430951388 
! Gamma         0                0                0                0                
! Port Impedance         50               0                50               0                
6.96                           0.493335565377914 -27.5443094416898 0.869247947171986 -117.536415522323 0.869247947171986 -117.536415522323 0.493335565377914 -27.5443094416898 
! Gamma         0                0                0                0                
! Port Impedance         50               0                50               0                
6.98                           0.491891361926623 -27.8637706998102 0.870064285492849 -117.856268893962 0.870064285492849 -117.856268893962 0.491891361926623 -27.8637706998102 
! Gamma         0                0                0                0                
! Port Impedance         50               0                50               0                
7                              0.490429066406503 -28.1838325493014 0.870887627969017 -118.176725981973 0.870887627969017 -118.176725981973 0.490429066406503 -28.1838325493014 
! Gamma         0                0                0                0                
! Port Impedance         50               0                50               0                
7.02                           0.488948611328663 -28.5045006298448 0.871717901519275 -118.497792489429 0.871717901519275 -118.497792489429 0.488948611328663 -28.5045006298447 
! Gamma         0                0                0                0                
! Port Impedance         50               0                50               0                
7.04                           0.48744992913835 -28.8257805398232 0.872555031624811 -118.819474079606 0.872555031624811 -118.819474079606 0.487449929138351 -28.8257805398232 
! Gamma         0                0                0                0                
! Port Impedance         50               0                50               0                
7.06                           0.485932952243251 -29.1476778351187 0.87339894231164 -119.141776374825 0.87339894231164 -119.141776374825 0.485932952243251 -29.1476778351187 
! Gamma         0                0                0                0                
! Port Impedance         50               0                50               0                
7.08                           0.484397613042436 -29.4701980278856 0.874249556133094 -119.464704955273 0.874249556133094 -119.464704955273 0.484397613042436 -29.4701980278856 
! Gamma         0                0                0                0                
! Port Impedance         50               0                50               0                
7.1                            0.482843843955969 -29.7933465852992 0.875106794152403 -119.788265357808 0.875106794152403 -119.788265357808 0.482843843955969 -29.7933465852992 
! Gamma         0                0                0                0                
! Port Impedance         50               0                50               0                
7.12                           0.481271577455172 -30.1171289282803 0.87597057592538 -120.112463074729 0.87597057592538 -120.112463074729 0.481271577455172 -30.1171289282803 
! Gamma         0                0                0                0                
! Port Impedance         50               0                50               0                
7.14                           0.479680746093571 -30.4415504301947 0.876840819483217 -120.437303552539 0.876840819483217 -120.437303552539 0.479680746093571 -30.4415504301947 
! Gamma         0                0                0                0                
! Port Impedance         50               0                50               0                
7.16                           0.478071282538509 -30.7666164155279 0.877717441315423 -120.762792190672 0.877717441315423 -120.762792190672 0.478071282538509 -30.7666164155279 
! Gamma         0                0                0                0                
! Port Impedance         50               0                50               0                
7.18                           0.476443119603451 -31.0923321585351 0.878600356352906 -121.088934340204 0.878600356352905 -121.088934340204 0.476443119603451 -31.0923321585351 
! Gamma         0                0                0                0                
! Port Impedance         50               0                50               0                
7.2                            0.474796190280977 -31.4187028818655 0.879489477951222 -121.415735302541 0.879489477951222 -121.415735302541 0.474796190280976 -31.4187028818655 
! Gamma         0                0                0                0                
! Port Impedance         50               0                50               0                
7.22                           0.473130427776469 -31.7457337551616 0.880384717874008 -121.74320032808 0.880384717874008 -121.74320032808 0.473130427776469 -31.7457337551616 
! Gamma         0                0                0                0                
! Port Impedance         50               0                50               0                
7.24                           0.471445765542507 -32.0734298936338 0.881285986276608 -122.071334614851 0.881285986276608 -122.071334614851 0.471445765542507 -32.0734298936339 
! Gamma         0                0                0                0                
! Port Impedance         50               0                50               0                
7.26                           0.469742137313959 -32.4017963566086 0.882193191689932 -122.400143307136 0.882193191689932 -122.400143307136 0.469742137313959 -32.4017963566086 
! Gamma         0                0                0                0                
! Port Impedance         50               0                50               0                
7.28                           0.468019477143799 -32.7308381460515 0.88310624100453 -122.729631494067 0.88310624100453 -122.729631494067 0.468019477143799 -32.7308381460515 
! Gamma         0                0                0                0                
! Port Impedance         50               0                50               0                
7.3                            0.466277719439623 -33.0605602050651 0.884025039454939 -123.059804208191 0.884025039454939 -123.059804208191 0.466277719439623 -33.0605602050651 
! Gamma         0                0                0                0                
! Port Impedance         50               0                50               0                
7.32                           0.464516799000902 -33.3909674163601 0.884949490604296 -123.390666424029 0.884949490604296 -123.390666424029 0.464516799000901 -33.3909674163601 
! Gamma         0                0                0                0                
! Port Impedance         50               0                50               0                
7.34                           0.462736651056944 -33.7220646007022 0.885879496329241 -123.722223056598 0.88587949632924 -123.722223056598 0.462736651056944 -33.7220646007022 
! Gamma         0                0                0                0                
! Port Impedance         50               0                50               0                
7.36                           0.460937211305593 -34.0538565153319 0.886814956805142 -124.054478959919 0.886814956805142 -124.054478959919 0.460937211305593 -34.0538565153319 
! Gamma         0                0                0                0                
! Port Impedance         50               0                50               0                
7.38                           0.459118415952652 -34.386347852359 0.88775577049165 -124.387438925501 0.887755770491651 -124.387438925501 0.459118415952652 -34.386347852359 
! Gamma         0                0                0                0                
! Port Impedance         50               0                50               0                
7.4                            0.457280201752036 -34.7195432371316 0.888701834118608 -124.721107680796 0.888701834118608 -124.721107680796 0.457280201752035 -34.7195432371317 
! Gamma         0                0                0                0                
! Port Impedance         50               0                50               0                
7.42                           0.455422506046657 -35.0534472265792 0.889653042672336 -125.055489887647 0.889653042672336 -125.055489887647 0.455422506046657 -35.0534472265792 
! Gamma         0                0                0                0                
! Port Impedance         50               0                50               0                
7.44                           0.453545266810048 -35.3880643075291 0.890609289382322 -125.390590140697 0.890609289382322 -125.390590140697 0.453545266810048 -35.3880643075292 
! Gamma         0                0                0                0                
! Port Impedance         50               0                50               0                
7.46                           0.451648422688715 -35.7233988949983 0.891570465708324 -125.726412965791 0.891570465708324 -125.726412965791 0.451648422688714 -35.7233988949984 
! Gamma         0                0                0                0                
! Port Impedance         50               0                50               0                
7.48                           0.44973191304522 -36.0594553304588 0.892536461327926 -126.062962818345 0.892536461327926 -126.062962818345 0.449731913045221 -36.0594553304588 
! Gamma         0                0                0                0                
! Port Impedance         50               0                50               0                
7.5                            0.447795678002008 -36.3962378800775 0.89350716412455 -126.400244081704 0.89350716412455 -126.400244081704 0.447795678002008 -36.3962378800775 
! Gamma         0                0                0                0                
! Port Impedance         50               0                50               0                
7.52                           0.445839658485947 -36.7337507329303 0.89448246017597 -126.738261065475 0.89448246017597 -126.738261065475 0.445839658485947 -36.7337507329303 
! Gamma         0                0                0                0                
! Port Impedance         50               0                50               0                
7.54                           0.443863796273612 -37.0719979991907 0.895462233743336 -127.077018003834 0.895462233743336 -127.077018003834 0.443863796273612 -37.0719979991907 
! Gamma         0                0                0                0                
! Port Impedance         50               0                50               0                
7.56                           0.441868034037287 -37.4109837082929 0.896446367260734 -127.416519053825 0.896446367260734 -127.416519053825 0.441868034037287 -37.4109837082929 
! Gamma         0                0                0                0                
! Port Impedance         50               0                50               0                
7.58                           0.439852315391687 -37.7507118070691 0.897434741325319 -127.756768293627 0.897434741325319 -127.756768293627 0.439852315391687 -37.7507118070691 
! Gamma         0                0                0                0                
! Port Impedance         50               0                50               0                
7.6                            0.437816584941405 -38.091186157862 0.898427234688029 -128.097769720813 0.898427234688029 -128.097769720813 0.437816584941405 -38.091186157862 
! Gamma         0                0                0                0                
! Port Impedance         50               0                50               0                
7.62                           0.435760788329059 -38.432410536612 0.899423724244923 -128.43952725058 0.899423724244922 -128.43952725058 0.435760788329059 -38.432410536612 
! Gamma         0                0                0                0                
! Port Impedance         50               0                50               0                
7.64                           0.433684872284154 -38.7743886309183 0.900424085029152 -128.782044713968 0.900424085029152 -128.782044713968 0.433684872284154 -38.7743886309183 
! Gamma         0                0                0                0                
! Port Impedance         50               0                50               0                
7.66                           0.431588784672637 -39.1171240380769 0.901428190203608 -129.125325856058 0.901428190203608 -129.125325856058 0.431588784672637 -39.117124038077 
! Gamma         0                0                0                0                
! Port Impedance         50               0                50               0                
7.68                           0.429472474547149 -39.4606202630917 0.902435911054259 -129.469374334152 0.90243591105426 -129.469374334152 0.429472474547149 -39.4606202630918 
! Gamma         0                0                0                0                
! Port Impedance         50               0                50               0                
7.7                            0.427335892197945 -39.8048807166623 0.903447116984209 -129.814193715938 0.903447116984209 -129.814193715938 0.427335892197945 -39.8048807166623 
! Gamma         0                0                0                0                
! Port Impedance         50               0                50               0                
7.72                           0.425178989204502 -40.1499087131466 0.904461675508511 -130.159787477639 0.904461675508511 -130.159787477639 0.425178989204502 -40.1499087131466 
! Gamma         0                0                0                0                
! Port Impedance         50               0                50               0                
7.74                           0.423001718487776 -40.4957074684991 0.90547945224975 -130.506159002143 0.90547945224975 -130.506159002143 0.423001718487776 -40.4957074684991 
! Gamma         0                0                0                0                
! Port Impedance         50               0                50               0                
7.76                           0.420804034363116 -40.8422800981852 0.906500310934439 -130.853311577123 0.906500310934439 -130.853311577123 0.420804034363116 -40.8422800981851 
! Gamma         0                0                0                0                
! Port Impedance         50               0                50               0                
7.78                           0.418585892593808 -41.1896296150707 0.907524113390241 -131.201248393139 0.90752411339024 -131.201248393139 0.418585892593808 -41.1896296150707 
! Gamma         0                0                0                0                
! Port Impedance         50               0                50               0                
7.8                            0.416347250445244 -41.5377589272883 0.908550719544055 -131.549972541728 0.908550719544055 -131.549972541728 0.416347250445245 -41.5377589272883 
! Gamma         0                0                0                0                
! Port Impedance         50               0                50               0                
7.82                           0.414088066739704 -41.8866708360796 0.909579987420996 -131.899487013478 0.909579987420996 -131.899487013478 0.414088066739704 -41.8866708360796 
! Gamma         0                0                0                0                
! Port Impedance         50               0                50               0                
7.84                           0.411808301911719 -42.2363680336132 0.910611773144285 -132.2497946961  0.910611773144285 -132.2497946961  0.411808301911719 -42.2363680336132 
! Gamma         0                0                0                0                
! Port Impedance         50               0                50               0                
7.86                           0.409507918064019 -42.5868531007805 0.911645930936097 -132.600898372474 0.911645930936097 -132.600898372474 0.409507918064019 -42.5868531007805 
! Gamma         0                0                0                0                
! Port Impedance         50               0                50               0                
7.88                           0.407186879024029 -42.9381285049668 0.912682313119373 -132.952800718695 0.912682313119373 -132.952800718695 0.407186879024029 -42.9381285049668 
! Gamma         0                0                0                0                
! Port Impedance         50               0                50               0                
7.9                            0.404845150400907 -43.2901965977997 0.913720770120652 -133.305504302107 0.913720770120652 -133.305504302107 0.404845150400907 -43.2901965977997 
! Gamma         0                0                0                0                
! Port Impedance         50               0                50               0                
7.92                           0.402482699643099 -43.6430596128747 0.914761150473923 -133.65901157933 0.914761150473924 -133.65901157933 0.402482699643099 -43.6430596128748 
! Gamma         0                0                0                0                
! Port Impedance         50               0                50               0                
7.94                           0.400099496096381 -43.9967196634573 0.915803300825556 -134.013324894274 0.915803300825556 -134.013324894274 0.400099496096381 -43.9967196634573 
! Gamma         0                0                0                0                
! Port Impedance         50               0                50               0                
7.96                           0.39769551106238 -44.3511787401615 0.916847065940307 -134.368446476154 0.916847065940307 -134.368446476154 0.39769551106238 -44.3511787401614 
! Gamma         0                0                0                0                
! Port Impedance         50               0                50               0                
7.98                           0.39527071785754 -44.7064387086068 0.917892288708461 -134.724378437491 0.91789228870846 -134.724378437491 0.39527071785754 -44.7064387086069 
! Gamma         0                0                0                0                
! Port Impedance         50               0                50               0                
8                              0.392825091872504 -45.0625013070513 0.91893881015412 -135.081122772118 0.91893881015412 -135.081122772118 0.392825091872504 -45.0625013070513 
! Gamma         0                0                0                0                
! Port Impedance         50               0                50               0                
8.02                           0.390358610631895 -45.4193681440012 0.919986469444662 -135.438681353175 0.919986469444662 -135.438681353175 0.390358610631896 -45.4193681440012 
! Gamma         0                0                0                0                
! Port Impedance         50               0                50               0                
8.04                           0.387871253854467 -45.7770406957988 0.921035103901425 -135.797055931106 0.921035103901424 -135.797055931106 0.387871253854467 -45.7770406957988 
! Gamma         0                0                0                0                
! Port Impedance         50               0                50               0                
8.06                           0.385363003513578 -46.1355203041855 0.922084549011603 -136.156248131652 0.922084549011603 -136.156248131652 0.385363003513578 -46.1355203041855 
! Gamma         0                0                0                0                
! Port Impedance         50               0                50               0                
8.08                           0.382833843897983 -46.494808173843 0.92313463844143 -136.516259453848 0.923134638441429 -136.516259453848 0.382833843897983 -46.4948081738429 
! Gamma         0                0                0                0                
! Port Impedance         50               0                50               0                
8.1                            0.380283761672896 -46.8549053699091 0.924185204050638 -136.87709126802 0.924185204050638 -136.87709126802 0.380283761672896 -46.8549053699091 
! Gamma         0                0                0                0                
! Port Impedance         50               0                50               0                
8.12                           0.377712745941284 -47.2158128154714 0.925236075908242 -137.238744813781 0.925236075908242 -137.238744813781 0.377712745941284 -47.2158128154714 
! Gamma         0                0                0                0                
! Port Impedance         50               0                50               0                
8.14                           0.375120788305375 -47.5775312890343 0.926287082309666 -137.601221198038 0.926287082309666 -137.601221198038 0.375120788305375 -47.5775312890343 
! Gamma         0                0                0                0                
! Port Impedance         50               0                50               0                
8.16                           0.372507882928327 -47.9400614219635 0.927338049795246 -137.964521393   0.927338049795246 -137.964521393   0.372507882928327 -47.9400614219635 
! Gamma         0                0                0                0                
! Port Impedance         50               0                50               0                
8.18                           0.369874026596032 -48.3034036959022 0.928388803170123 -138.328646234197 0.928388803170123 -138.328646234197 0.369874026596032 -48.3034036959022 
! Gamma         0                0                0                0                
! Port Impedance         50               0                50               0                
8.2                            0.367219218779006 -48.6675584401634 0.929439165525565 -138.693596418497 0.929439165525565 -138.693596418497 0.367219218779006 -48.6675584401635 
! Gamma         0                0                0                0                
! Port Impedance         50               0                50               0                
8.22                           0.364543461694331 -49.0325258290931 0.930488958261735 -139.059372502151 0.930488958261735 -139.059372502151 0.364543461694331 -49.0325258290932 
! Gamma         0                0                0                0                
! Port Impedance         50               0                50               0                
8.24                           0.36184676036761 -49.3983058794062 0.931538001111929 -139.425974898832 0.931538001111929 -139.425974898832 0.361846760367609 -49.3983058794062 
! Gamma         0                0                0                0                
! Port Impedance         50               0                50               0                
8.26                           0.359129122694872 -49.7648984474925 0.932586112168306 -139.793403877697 0.932586112168306 -139.793403877697 0.359129122694872 -49.7648984474925 
! Gamma         0                0                0                0                
! Port Impedance         50               0                50               0                
8.28                           0.356390559504418 -50.1323032266916 0.933633107909143 -140.161659561459 0.933633107909143 -140.161659561459 0.356390559504418 -50.1323032266916 
! Gamma         0                0                0                0                
! Port Impedance         50               0                50               0                
8.3                            0.353631084618523 -50.5005197445356 0.934678803227615 -140.530741924483 0.934678803227615 -140.530741924483 0.353631084618523 -50.5005197445356 
! Gamma         0                0                0                0                
! Port Impedance         50               0                50               0                
8.32                           0.35085071491497 -50.8695473599574 0.935723011462151 -140.900650790888 0.935723011462151 -140.900650790888 0.35085071491497 -50.8695473599574 
! Gamma         0                0                0                0                
! Port Impedance         50               0                50               0                
8.34                           0.348049470388364 -51.239385260462 0.936765544428348 -141.271385832677 0.936765544428348 -141.271385832677 0.348049470388363 -51.239385260462 
! Gamma         0                0                0                0                
! Port Impedance         50               0                50               0                
8.36                           0.34522737421117 -51.6100324592592 0.937806212452498 -141.642946567891 0.937806212452498 -141.642946567891 0.34522737421117 -51.6100324592593 
! Gamma         0                0                0                0                
! Port Impedance         50               0                50               0                
8.38                           0.34238445279443 -51.9814877923551 0.938844824406723 -142.015332358775 0.938844824406723 -142.015332358775 0.34238445279443 -51.9814877923551 
! Gamma         0                0                0                0                
! Port Impedance         50               0                50               0                
8.4                            0.339520735848093 -52.3537499155978 0.939881187745736 -142.388542409983 0.939881187745735 -142.388542409983 0.339520735848093 -52.3537499155978 
! Gamma         0                0                0                0                
! Port Impedance         50               0                50               0                
8.42                           0.336636256440926 -52.7268173016757 0.940915108545252 -142.762575766796 0.940915108545252 -142.762575766796 0.336636256440926 -52.7268173016757 
! Gamma         0                0                0                0                
! Port Impedance         50               0                50               0                
8.44                           0.333731051059931 -53.100688237064 0.941946391542062 -143.137431313383 0.941946391542062 -143.137431313383 0.333731051059931 -53.100688237064 
! Gamma         0                0                0                0                
! Port Impedance         50               0                50               0                
8.46                           0.330805159669224 -53.4753608189134 0.942974840175763 -143.51310777108 0.942974840175763 -143.51310777108 0.330805159669223 -53.4753608189134 
! Gamma         0                0                0                0                
! Port Impedance         50               0                50               0                
8.48                           0.3278586257683  -53.8508329518789 0.944000256632186 -143.88960369671 0.944000256632186 -143.88960369671 0.3278586257683  -53.8508329518789 
! Gamma         0                0                0                0                
! Port Impedance         50               0                50               0                
8.5                            0.32489149644966 -54.2271023448803 0.945022441888503 -144.266917480932 0.945022441888503 -144.266917480932 0.32489149644966 -54.2271023448803 
! Gamma         0                0                0                0                
! Port Impedance         50               0                50               0                
8.52                           0.321903822455697 -54.6041665077903 0.946041195760041 -144.645047346631 0.94604119576004 -144.645047346631 0.321903822455697 -54.6041665077903 
! Gamma         0                0                0                0                
! Port Impedance         50               0                50               0                
8.54                           0.318895658234816 -54.9820227480422 0.947056316948792 -145.023991347347 0.947056316948793 -145.023991347347 0.318895658234815 -54.9820227480422 
! Gamma         0                0                0                0                
! Port Impedance         50               0                50               0                
8.56                           0.315867061996702 -55.3606681671496 0.948067603093644 -145.403747365734 0.948067603093644 -145.403747365734 0.315867061996701 -55.3606681671496 
! Gamma         0                0                0                0                
! Port Impedance         50               0                50               0                
8.58                           0.312818095766691 -55.7400996571297 0.949074850822307 -145.78431311208 0.949074850822308 -145.78431311208 0.312818095766691 -55.7400996571297 
! Gamma         0                0                0                0                
! Port Impedance         50               0                50               0                
8.6                            0.309748825439167 -56.1203138968201 0.950077855804969 -146.165686122852 0.95007785580497 -146.165686122852 0.309748825439167 -56.1203138968201 
! Gamma         0                0                0                0                
! Port Impedance         50               0                50               0                
8.62                           0.306659320829926 -56.5013073480785 0.951076412809649 -146.547863759303 0.951076412809649 -146.547863759303 0.306659320829926 -56.5013073480785 
! Gamma         0                0                0                0                
! Port Impedance         50               0                50               0                
8.64                           0.303549655727441 -56.8830762518536 0.952070315759268 -146.930843206117 0.952070315759268 -146.930843206117 0.303549655727442 -56.8830762518536 
! Gamma         0                0                0                0                
! Port Impedance         50               0                50               0                
8.66                           0.300419907942967 -57.2656166241125 0.953059357790417 -147.314621470111 0.953059357790417 -147.314621470111 0.300419907942967 -57.2656166241125 
! Gamma         0                0                0                0                
! Port Impedance         50               0                50               0                
8.68                           0.297270159359406 -57.648924251611 0.954043331313823 -147.699195378988 0.954043331313824 -147.699195378988 0.297270159359406 -57.648924251611 
! Gamma         0                0                0                0                
! Port Impedance         50               0                50               0                
8.7                            0.294100495978884 -58.0329946874888 0.955022028076507 -148.084561580145 0.955022028076507 -148.084561580145 0.294100495978884 -58.0329946874889 
! Gamma         0                0                0                0                
! Port Impedance         50               0                50               0                
8.72                           0.290911007968956 -58.4178232466719 0.955995239225607 -148.470716539535 0.955995239225607 -148.470716539535 0.290911007968956 -58.4178232466719 
! Gamma         0                0                0                0                
! Port Impedance         50               0                50               0                
8.74                           0.287701789707378 -58.8034050010595 0.956962755373873 -148.857656540593 0.956962755373873 -148.857656540593 0.287701789707378 -58.8034050010595 
! Gamma         0                0                0                0                
! Port Impedance         50               0                50               0                
8.76                           0.284472939825377 -59.189734774475 0.957924366666798 -149.24537768322 0.957924366666798 -149.24537768322 0.284472939825377 -59.1897347744749 
! Gamma         0                0                0                0                
! Port Impedance         50               0                50               0                
8.78                           0.281224561249356 -59.57680713735  0.958879862851393 -149.633875882829 0.958879862851393 -149.633875882829 0.281224561249356 -59.57680713735  
! Gamma         0                0                0                0                
! Port Impedance         50               0                50               0                
8.8                            0.277956761240955 -59.9646164011184 0.959829033346548 -150.023146869463 0.959829033346548 -150.023146869463 0.277956761240956 -59.9646164011184 
! Gamma         0                0                0                0                
! Port Impedance         50               0                50               0                
8.82                           0.274669651435408 -60.3531566122811 0.960771667314997 -150.413186186968 0.960771667314997 -150.413186186968 0.274669651435408 -60.3531566122811 
! Gamma         0                0                0                0                
! Port Impedance         50               0                50               0                
8.84                           0.271363347878121 -60.7424215461101 0.961707553736828 -150.803989192248 0.961707553736828 -150.803989192248 0.271363347878121 -60.7424215461101 
! Gamma         0                0                0                0                
! Port Impedance         50               0                50               0                
8.86                           0.268037971059417 -61.1324046999467 0.962636481484536 -151.195551054583 0.962636481484536 -151.195551054583 0.268037971059417 -61.1324046999467 
! Gamma         0                0                0                0                
! Port Impedance         50               0                50               0                
8.88                           0.264693645947359 -61.5230992860502 0.963558239399566 -151.587866755023 0.963558239399566 -151.587866755023 0.264693645947359 -61.5230992860501 
! Gamma         0                0                0                0                
! Port Impedance         50               0                50               0                
8.9                            0.2613305020186  -61.9144982239438 0.964472616370333 -151.980931085858 0.964472616370333 -151.980931085858 0.2613305020186  -61.9144982239438 
! Gamma         0                0                0                0                
! Port Impedance         50               0                50               0                
8.92                           0.257948673287191 -62.3065941321996 0.965379401411669 -152.374738650163 0.965379401411668 -152.374738650163 0.257948673287191 -62.3065941321996 
! Gamma         0                0                0                0                
! Port Impedance         50               0                50               0                
8.94                           0.254548298331273 -62.6993793195971 0.966278383745669 -152.769283861424 0.966278383745669 -152.769283861424 0.254548298331273 -62.699379319597 
! Gamma         0                0                0                0                
! Port Impedance         50               0                50               0                
8.96                           0.251129520317598 -63.0928457755806 0.967169352883891 -153.164560943245 0.967169352883891 -153.164560943245 0.251129520317598 -63.0928457755805 
! Gamma         0                0                0                0                
! Port Impedance         50               0                50               0                
8.98                           0.247692487023807 -63.4869851599324 0.968052098710864 -153.560563929131 0.968052098710865 -153.560563929131 0.247692487023807 -63.4869851599324 
! Gamma         0                0                0                0                
! Port Impedance         50               0                50               0                
9                              0.244237350858407 -63.8817887915666 0.968926411568868 -153.95728666237 0.968926411568869 -153.95728666237 0.244237350858407 -63.8817887915667 
! Gamma         0                0                0                0                
! Port Impedance         50               0                50               0                
9.02                           0.24076426887838 -64.2772476363368 0.969792082343921 -154.354722795983 0.969792082343922 -154.354722795983 0.24076426887838 -64.2772476363369 
! Gamma         0                0                0                0                
! Port Impedance         50               0                50               0                
9.04                           0.237273402804365 -64.6733522937367 0.970648902552949 -154.75286579278 0.970648902552949 -154.75286579278 0.237273402804365 -64.6733522937368 
! Gamma         0                0                0                0                
! Port Impedance         50               0                50               0                
9.06                           0.233764919033365 -65.070092982354 0.971496664432053 -155.151708925487 0.971496664432053 -155.151708925487 0.233764919033365 -65.0700929823539 
! Gamma         0                0                0                0                
! Port Impedance         50               0                50               0                
9.08                           0.230238988648894 -65.4674595239233 0.972335161025842 -155.551245276983 0.972335161025842 -155.551245276983 0.230238988648894 -65.4674595239233 
! Gamma         0                0                0                0                
! Port Impedance         50               0                50               0                
9.1                            0.226695787428539 -65.8654413257977 0.973164186277766 -155.951467740613 0.973164186277765 -155.951467740613 0.226695787428539 -65.8654413257976 
! Gamma         0                0                0                0                
! Port Impedance         50               0                50               0                
9.12                           0.223135495848866 -66.2640273616341 0.973983535121381 -156.352369020607 0.973983535121381 -156.352369020607 0.223135495848867 -66.264027361634 
! Gamma         0                0                0                0                
! Port Impedance         50               0                50               0                
9.14                           0.219558299087617 -66.6632061500614 0.974793003572497 -156.753941632584 0.974793003572498 -156.753941632584 0.219558299087617 -66.6632061500614 
! Gamma         0                0                0                0                
! Port Impedance         50               0                50               0                
9.16                           0.215964387023154 -67.062965731061 0.975592388822126 -157.156177904165 0.975592388822126 -157.156177904165 0.215964387023154 -67.0629657310611 
! Gamma         0                0                0                0                
! Port Impedance         50               0                50               0                
9.18                           0.212353954231105 -67.4632936397535 0.976381489330176 -157.559069975674 0.976381489330176 -157.559069975674 0.212353954231105 -67.4632936397534 
! Gamma         0                0                0                0                
! Port Impedance         50               0                50               0                
9.2                            0.208727199978156 -67.8641768772359 0.977160104919813 -157.962609800938 0.977160104919812 -157.962609800938 0.208727199978156 -67.8641768772359 
! Gamma         0                0                0                0                
! Port Impedance         50               0                50               0                
9.22                           0.205084328212958 -68.2656018780615 0.97792803687242 -158.366789148196 0.97792803687242 -158.366789148196 0.205084328212958 -68.2656018780616 
! Gamma         0                0                0                0                
! Port Impedance         50               0                50               0                
9.24                           0.201425547554104 -68.6675544738877 0.978685088023083 -158.771599601101 0.978685088023083 -158.771599601101 0.201425547554104 -68.6675544738877 
! Gamma         0                0                0                0                
! Port Impedance         50               0                50               0                
9.26                           0.19775107127514 -69.070019852741 0.979431062856512 -159.177032559826 0.979431062856512 -159.177032559826 0.19775107127514 -69.070019852741 
! Gamma         0                0                0                0                
! Port Impedance         50               0                50               0                
9.28                           0.194061117286573 -69.4729825132622 0.980165767603337 -159.583079242276 0.980165767603337 -159.583079242276 0.194061117286573 -69.4729825132621 
! Gamma         0                0                0                0                
! Port Impedance         50               0                50               0                
9.3                            0.190355908114857 -69.8764262131814 0.980889010336681 -159.989730685398 0.98088901033668 -159.989730685398 0.190355908114857 -69.8764262131814 
! Gamma         0                0                0                0                
! Port Impedance         50               0                50               0                
9.32                           0.18663567087832 -70.2803339111515 0.98160060106894 -160.3969777466  0.98160060106894 -160.3969777466  0.18663567087832 -70.2803339111514 
! Gamma         0                0                0                0                
! Port Impedance         50               0                50               0                
9.34                           0.182900637260009 -70.6846877009121 0.982300351848681 -160.804811105276 0.982300351848681 -160.804811105276 0.182900637260009 -70.6846877009121 
! Gamma         0                0                0                0                
! Port Impedance         50               0                50               0                
9.36                           0.179151043477446 -71.0894687365761 0.982988076857555 -161.213221264429 0.982988076857555 -161.213221264429 0.179151043477446 -71.0894687365761 
! Gamma         0                0                0                0                
! Port Impedance         50               0                50               0                
9.38                           0.175387130249266 -71.4946571476076 0.983663592507169 -161.622198552405 0.983663592507169 -161.622198552405 0.175387130249266 -71.4946571476075 
! Gamma         0                0                0                0                
! Port Impedance         50               0                50               0                
9.4                            0.17160914275874 -71.9002319417991 0.984326717535806 -162.031733124734 0.984326717535805 -162.031733124734 0.171609142758741 -71.900231941799 
! Gamma         0                0                0                0                
! Port Impedance         50               0                50               0                
9.42                           0.167817330614169 -72.3061708942255 0.984977273104888 -162.441814966074 0.984977273104888 -162.441814966074 0.167817330614169 -72.3061708942256 
! Gamma         0                0                0                0                
! Port Impedance         50               0                50               0                
9.44                           0.164011947806151 -72.712450419766 0.985615082895136 -162.852433892259 0.985615082895136 -162.852433892259 0.164011947806151 -72.712450419766 
! Gamma         0                0                0                0                
! Port Impedance         50               0                50               0                
9.46                           0.160193252661743 -73.119045426296 0.986239973202277 -163.263579552457 0.986239973202277 -163.263579552457 0.160193252661743 -73.119045426296 
! Gamma         0                0                0                0                
! Port Impedance         50               0                50               0                
9.48                           0.156361507795504 -73.5259291450609 0.98685177303225 -163.675241431435 0.98685177303225 -163.675241431435 0.156361507795504 -73.5259291450607 
! Gamma         0                0                0                0                
! Port Impedance         50               0                50               0                
9.5                            0.152516980057461 -73.9330729340064 0.987450314195788 -164.087408851919 0.987450314195788 -164.087408851919 0.152516980057461 -73.9330729340064 
! Gamma         0                0                0                0                
! Port Impedance         50               0                50               0                
9.52                           0.14865994047802 -74.3404460489286 0.988035431402287 -164.500070977071 0.988035431402287 -164.500070977071 0.14865994047802 -74.3404460489285 
! Gamma         0                0                0                0                
! Port Impedance         50               0                50               0                
9.54                           0.144790664209854 -74.7480153761608 0.988606962352874 -164.913216813065 0.988606962352874 -164.913216813065 0.144790664209854 -74.7480153761609 
! Gamma         0                0                0                0                
! Port Impedance         50               0                50               0                
9.56                           0.140909430466833 -75.1557451190853 0.989164747832563 -165.326835211762 0.989164747832563 -165.326835211762 0.140909430466833 -75.1557451190854 
! Gamma         0                0                0                0                
! Port Impedance         50               0                50               0                
9.58                           0.137016522460025 -75.5635964289324 0.989708631801411 -165.740914873497 0.989708631801411 -165.740914873497 0.137016522460025 -75.5635964289323 
! Gamma         0                0                0                0                
! Port Impedance         50               0                50               0                
9.6                            0.133112227330885 -75.9715269680266 0.990238461484579 -166.15544434996 0.990238461484579 -166.15544434996 0.133112227330886 -75.9715269680266 
! Gamma         0                0                0                0                
! Port Impedance         50               0                50               0                
9.62                           0.129196836081688 -76.379490390674 0.990754087461183 -166.57041204718 0.990754087461184 -166.57041204718 0.129196836081688 -76.3794903906741 
! Gamma         0                0                0                0                
! Port Impedance         50               0                50               0                
9.64                           0.125270643503338 -76.7874357230604 0.991255363751864 -166.98580622861 0.991255363751864 -166.98580622861 0.125270643503338 -76.7874357230605 
! Gamma         0                0                0                0                
! Port Impedance         50               0                50               0                
9.66                           0.121333948100694 -77.1953066185653 0.991742147904959 -167.401615018307 0.991742147904959 -167.401615018307 0.121333948100694 -77.1953066185653 
! Gamma         0                0                0                0                
! Port Impedance         50               0                50               0                
9.68                           0.117387052015582 -77.6030404583855 0.992214301081186 -167.817826404212 0.992214301081186 -167.817826404212 0.117387052015582 -77.6030404583855 
! Gamma         0                0                0                0                
! Port Impedance         50               0                50               0                
9.7                            0.113430260947714 -78.0105672587482 0.992671688136746 -168.234428241526 0.992671688136746 -168.234428241526 0.113430260947714 -78.0105672587482 
! Gamma         0                0                0                0                
! Port Impedance         50               0                50               0                
9.72                           0.109463884073788 -78.4178083345331 0.993114177704748 -168.65140825617 0.993114177704748 -168.65140825617 0.109463884073788 -78.4178083345329 
! Gamma         0                0                0                0                
! Port Impedance         50               0                50               0                
9.74                           0.105488233965118 -78.8246746536594 0.993541642274861 -169.068754048352 0.993541642274861 -169.068754048352 0.105488233965118 -78.8246746536594 
! Gamma         0                0                0                0                
! Port Impedance         50               0                50               0                
9.76                           0.101503626504241 -79.2310647955935 0.993953958271102 -169.486453096211 0.993953958271103 -169.486453096211 0.101503626504241 -79.2310647955937 
! Gamma         0                0                0                0                
! Port Impedance         50               0                50               0                
9.78                           0.0975103808010828 -79.6368623984295 0.994351006127671 -169.904492759552 0.994351006127671 -169.904492759552 0.0975103808010828 -79.6368623984296 
! Gamma         0                0                0                0                
! Port Impedance         50               0                50               0                
9.8                            0.0935088191094567 -80.0419329387937 0.994732670362741 -170.322860283673 0.994732670362741 -170.322860283673 0.0935088191094566 -80.0419329387938 
! Gamma         0                0                0                0                
! Port Impedance         50               0                50               0                
9.82                           0.0894992667449218 -80.446119632161 0.995098839650112 -170.741542803265 0.995098839650112 -170.741542803265 0.0894992667449218 -80.4461196321609 
! Gamma         0                0                0                0                
! Port Impedance         50               0                50               0                
9.84                           0.0854820520054056 -80.849238160205 0.995449406888655 -171.160527346402 0.995449406888655 -171.160527346402 0.0854820520054055 -80.8492381602052 
! Gamma         0                0                0                0                
! Port Impedance         50               0                50               0                
9.86                           0.0814575060965263 -81.251069814417 0.995784269269446 -171.579800838603 0.995784269269446 -171.579800838603 0.0814575060965263 -81.251069814417 
! Gamma         0                0                0                0                
! Port Impedance         50               0                50               0                
9.88                           0.0774259630643482 -81.6513524721532 0.996103328340524 -171.999350106975 0.996103328340524 -171.999350106975 0.0774259630643482 -81.6513524721531 
! Gamma         0                0                0                0                
! Port Impedance         50               0                50               0                
9.9                            0.0733877597394752 -82.0497685616744 0.996406490069182 -172.419161884422 0.996406490069183 -172.419161884422 0.0733877597394752 -82.0497685616744 
! Gamma         0                0                0                0                
! Port Impedance         50               0                50               0                
9.92                           0.0693432356981985 -82.445928775584 0.996693664901719 -172.839222813936 0.996693664901719 -172.839222813936 0.0693432356981986 -82.4459287755838 
! Gamma         0                0                0                0                
! Port Impedance         50               0                50               0                
9.94                           0.0652927332492353 -82.8393496714092 0.996964767820581 -173.259519452942 0.996964767820581 -173.259519452942 0.0652927332492352 -82.8393496714094 
! Gamma         0                0                0                0                
! Port Impedance         50               0                50               0                
9.96                           0.0612365974591043 -83.2294223047747 0.99721971839882 -173.680038277719 0.99721971839882 -173.680038277719 0.0612365974591043 -83.2294223047748 
! Gamma         0                0                0                0                
! Port Impedance         50               0                50               0                
9.98                           0.0571751762365996 -83.6153674083478 0.997458440851794 -174.100765687873 0.997458440851795 -174.100765687873 0.0571751762365996 -83.6153674083479 
! Gamma         0                0                0                0                
! Port Impedance         50               0                50               0                
10                             0.0531088205093501 -83.9961698666784 0.997680864086062 -174.521688010879 0.997680864086062 -174.521688010879 0.0531088205093501 -83.9961698666785 
! Gamma         0                0                0                0                
! Port Impedance         50               0                50               0                
10.02                          0.0490378845474417 -84.3704804001669 0.997886921745383 -174.942791506664 0.997886921745383 -174.942791506664 0.0490378845474417 -84.3704804001668 
! Gamma         0                0                0                0                
! Port Impedance         50               0                50               0                
10.04                          0.044962726528963 -84.7364635740176 0.998076552253797 -175.364062372255 0.998076552253797 -175.364062372255 0.044962726528963 -84.7364635740176 
! Gamma         0                0                0                0                
! Port Impedance         50               0                50               0                
10.06                          0.0408837095182802 -85.0915545264834 0.9982496988557  -175.785486746469 0.9982496988557  -175.785486746469 0.0408837095182801 -85.0915545264834 
! Gamma         0                0                0                0                
! Port Impedance         50               0                50               0                
10.08                          0.0368012031796859 -85.4320533528595 0.99840630965288 -176.207050714647 0.99840630965288 -176.207050714647 0.0368012031796859 -85.4320533528595 
! Gamma         0                0                0                0                
! Port Impedance         50               0                50               0                
10.1                           0.0327155868719919 -85.7524149482685 0.998546337638468 -176.628740313432 0.998546337638468 -176.628740313432 0.0327155868719919 -85.752414948268 
! Gamma         0                0                0                0                
! Port Impedance         50               0                50               0                
10.12                          0.0286272555081923 -86.043929428815 0.998669740727748 -177.050541535583 0.998669740727748 -177.050541535583 0.0286272555081922 -86.0439294288147 
! Gamma         0                0                0                0                
! Port Impedance         50               0                50               0                
10.14                          0.0245366314122248 -86.2920812761439 0.998776481785792 -177.472440334823 0.998776481785792 -177.472440334823 0.0245366314122248 -86.2920812761445 
! Gamma         0                0                0                0                
! Port Impedance         50               0                50               0                
10.16                          0.0204441905838288 -86.4707349692744 0.998866528651896 -177.894422630721 0.998866528651896 -177.894422630721 0.0204441905838288 -86.470734969274 
! Gamma         0                0                0                0                
! Port Impedance         50               0                50               0                
10.18                          0.0163505286336621 -86.5275855162817 0.998939854160761 -178.316474313593 0.998939854160761 -178.316474313593 0.0163505286336621 -86.5275855162826 
! Gamma         0                0                0                0                
! Port Impedance         50               0                50               0                
10.2                           0.0122565591503886 -86.3404620524072 0.998996436160415 -178.738581249433 0.998996436160415 -178.738581249433 0.0122565591503886 -86.3404620524066 
! Gamma         0                0                0                0                
! Port Impedance         50               0                50               0                
10.22                          0.0081643091069964 -85.542356453174 0.99903625752684 -179.16072928486 0.99903625752684 -179.16072928486 0.00816430910699644 -85.5423564531714 
! Gamma         0                0                0                0                
! Port Impedance         50               0                50               0                
10.24                          0.00408249509647443 -82.2986638677932 0.999059306175284 -179.582904252081 0.999059306175284 -179.582904252081 0.00408249509647439 -82.2986638677967 
! Gamma         0                0                0                0                
! Port Impedance         50               0                50               0                
10.26                          0.000522297221866653 5.40857456554722 0.999065575068257 179.994908026138 0.999065575068257 179.994908026138 0.000522297221866653 5.40857456554721 
! Gamma         0                0                0                0                
! Port Impedance         50               0                50               0                
10.28                          0.00418082576963834 82.3964867861795 0.999055062220177 179.572721731488 0.999055062220177 179.572721731488 0.00418082576963833 82.3964867861812 
! Gamma         0                0                0                0                
! Port Impedance         50               0                50               0                
10.3                           0.00826315684789631 85.5109216655525 0.999027770698688 179.150551045133 0.999027770698688 179.150551045133 0.00826315684789631 85.5109216655516 
! Gamma         0                0                0                0                
! Port Impedance         50               0                50               0                
10.32                          0.0123553966180551 86.2847586718976 0.998983708622622 178.728410142726 0.998983708622622 178.728410142726 0.0123553966180552 86.2847586718965 
! Gamma         0                0                0                0                
! Port Impedance         50               0                50               0                
10.34                          0.0164492360601511 86.4633707458645 0.998922889156624 178.306313189432 0.998922889156624 178.306313189432 0.0164492360601511 86.4633707458641 
! Gamma         0                0                0                0                
! Port Impedance         50               0                50               0                
10.36                          0.0205426991259926 86.4025849390595 0.998845330502452 177.884274334951 0.998845330502452 177.884274334951 0.0205426991259926 86.4025849390609 
! Gamma         0                0                0                0                
! Port Impedance         50               0                50               0                
10.38                          0.0246348849140915 86.221801681654  0.998751055886932 177.462307708563 0.998751055886931 177.462307708563 0.0246348849140915 86.2218016816531 
! Gamma         0                0                0                0                
! Port Impedance         50               0                50               0                
10.4                           0.0287252022560196 85.9723750455054 0.998640093546626 177.040427414183 0.998640093546626 177.040427414183 0.0287252022560196 85.9723750455059 
! Gamma         0                0                0                0                
! Port Impedance         50               0                50               0                
10.42                          0.0328131771036044 85.6800429760746 0.998512476709208 176.618647525435 0.998512476709208 176.618647525435 0.0328131771036044 85.6800429760742 
! Gamma         0                0                0                0                
! Port Impedance         50               0                50               0                
10.44                          0.0368983881643923 85.359130951203  0.998368243571566 176.196982080757 0.998368243571566 176.196982080757 0.0368983881643924 85.3591309512028 
! Gamma         0                0                0                0                
! Port Impedance         50               0                50               0                
10.46                          0.0409804411707452 85.0182487225575 0.998207437274684 175.775445078521 0.998207437274684 175.775445078521 0.0409804411707452 85.0182487225577 
! Gamma         0                0                0                0                
! Port Impedance         50               0                50               0                
10.48                          0.04505895723447 84.6628845671261 0.998030105875312 175.354050472199 0.998030105875312 175.354050472199 0.04505895723447 84.6628845671259 
! Gamma         0                0                0                0                
! Port Impedance         50               0                50               0                
10.5                           0.0491335670807998 84.2967041902493 0.99783630231447 174.932812165549 0.99783630231447 174.932812165549 0.0491335670807998 84.2967041902495 
! Gamma         0                0                0                0                
! Port Impedance         50               0                50               0                
10.52                          0.0532039079990178 83.9222508700093 0.997626084382839 174.511744007854 0.997626084382839 174.511744007854 0.0532039079990178 83.9222508700095 
! Gamma         0                0                0                0                
! Port Impedance         50               0                50               0                
10.54                          0.0572696221521661 83.5413458722173 0.997399514683052 174.090859789187 0.997399514683052 174.090859789187 0.0572696221521661 83.5413458722172 
! Gamma         0                0                0                0                
! Port Impedance         50               0                50               0                
10.56                          0.0613303556114844 83.1553288608989 0.997156660588969 173.670173235739 0.997156660588969 173.670173235739 0.0613303556114844 83.1553288608992 
! Gamma         0                0                0                0                
! Port Impedance         50               0                50               0                
10.58                          0.0653857577980647 82.7652082378656 0.996897594201966 173.24969800518  0.996897594201966 173.24969800518  0.0653857577980647 82.7652082378656 
! Gamma         0                0                0                0                
! Port Impedance         50               0                50               0                
10.6                           0.0694354811634333 82.3717584659284 0.996622392304294 172.829447682084 0.996622392304294 172.829447682084 0.0694354811634333 82.3717584659281 
! Gamma         0                0                0                0                
! Port Impedance         50               0                50               0                
10.62                          0.0734791810154614 81.9755849759392 0.996331136309583 172.409435773402 0.996331136309583 172.409435773402 0.0734791810154614 81.9755849759394 
! Gamma         0                0                0                0                
! Port Impedance         50               0                50               0                
10.64                          0.0775165154353489 81.5771685911094 0.996023912210531 171.989675704001 0.996023912210532 171.989675704001 0.077516515435349 81.5771685911092 
! Gamma         0                0                0                0                
! Port Impedance         50               0                50               0                
10.66                          0.0815471452530732 81.1768966322962 0.995700810523867 171.570180812259 0.995700810523867 171.570180812259 0.0815471452530732 81.1768966322961 
! Gamma         0                0                0                0                
! Port Impedance         50               0                50               0                
10.68                          0.085570734061071 80.7750851408854 0.995361926232632 171.150964345727 0.995361926232631 171.150964345727 0.085570734061071 80.7750851408851 
! Gamma         0                0                0                0                
! Port Impedance         50               0                50               0                
10.7                           0.0895869482532442 80.3719950436488 0.995007358725875 170.732039456859 0.995007358725875 170.732039456859 0.0895869482532441 80.371995043649  
! Gamma         0                0                0                0                
! Port Impedance         50               0                50               0                
10.72                          0.0935954570808457 79.9678441022059 0.994637211735821 170.313419198818 0.994637211735821 170.313419198818 0.0935954570808457 79.9678441022058 
! Gamma         0                0                0                0                
! Port Impedance         50               0                50               0                
10.74                          0.0975959327195746 79.5628158758734 0.994251593272591 169.895116521346 0.994251593272591 169.895116521346 0.0975959327195747 79.5628158758732 
! Gamma         0                0                0                0                
! Port Impedance         50               0                50               0                
10.76                          0.101588050344013 79.1570665337049 0.993850615556559 169.477144266718 0.993850615556559 169.477144266718 0.101588050344013 79.1570665337051 
! Gamma         0                0                0                0                
! Port Impedance         50               0                50               0                
10.78                          0.105571488206698 78.7507300944992 0.993434394948426 169.059515165774 0.993434394948426 169.059515165774 0.105571488206698 78.7507300944992 
! Gamma         0                0                0                0                
! Port Impedance         50               0                50               0                
10.8                           0.109545927719907 78.3439225021488 0.993003051877093 168.642241834029 0.993003051877092 168.642241834029 0.109545927719907 78.3439225021488 
! Gamma         0                0                0                0                
! Port Impedance         50               0                50               0                
10.82                          0.113511053538764 77.936744827376  0.992556710765418 168.225336767869 0.992556710765418 168.225336767869 0.113511053538764 77.9367448273759 
! Gamma         0                0                0                0                
! Port Impedance         50               0                50               0                
10.84                          0.117466553644647 77.5292858066494 0.992095499953953 167.808812340837 0.992095499953953 167.808812340837 0.117466553644647 77.5292858066494 
! Gamma         0                0                0                0                
! Port Impedance         50               0                50               0                
10.86                          0.121412119428125 77.1216238728906 0.991619551622744 167.392680799997 0.991619551622744 167.392680799997 0.121412119428125 77.1216238728906 
! Gamma         0                0                0                0                
! Port Impedance         50               0                50               0                
10.88                          0.125347445770862 76.713828792699  0.991129001711282 166.9769542624   0.991129001711281 166.9769542624   0.125347445770862 76.7138287926987 
! Gamma         0                0                0                0                
! Port Impedance         50               0                50               0                
10.9                           0.129272231126026 76.3059629961528 0.990623989836706 166.561644711632 0.990623989836706 166.561644711632 0.129272231126025 76.3059629961529 
! Gamma         0                0                0                0                
! Port Impedance         50               0                50               0                
10.92                          0.133186177596858 75.8980826643961 0.990104659210354 166.146763994465 0.990104659210354 166.146763994465 0.133186177596858 75.898082664396  
! Gamma         0                0                0                0                
! Port Impedance         50               0                50               0                
10.94                          0.137088991013157 75.4902386248738 0.989571156552739 165.732323817596 0.989571156552739 165.732323817596 0.137088991013157 75.4902386248739 
! Gamma         0                0                0                0                
! Port Impedance         50               0                50               0                
10.96                          0.140980381005413 75.0824770926991 0.989023632007068 165.318335744484 0.989023632007068 165.318335744484 0.140980381005413 75.0824770926992 
! Gamma         0                0                0                0                
! Port Impedance         50               0                50               0                
10.98                          0.144860061076478 74.6748402880727 0.988462239051386 164.90481119229  0.988462239051386 164.90481119229  0.144860061076478 74.6748402880724 
! Gamma         0                0                0                0                
! Port Impedance         50               0                50               0                
11                             0.148727748670568 74.2673669532211 0.987887134409449 164.491761428916 0.987887134409449 164.491761428916 0.148727748670568 74.2673669532212 
! Gamma         0                0                0                0                
! Port Impedance         50               0                50               0                
11.02                          0.15258316523955 73.8600927873753 0.987298477960417 164.079197570138 0.987298477960417 164.079197570138 0.15258316523955 73.8600927873755 
! Gamma         0                0                0                0                
! Port Impedance         50               0                50               0                
11.04                          0.156426036306368 73.4530508145117 0.986696432647468 163.667130576846 0.986696432647468 163.667130576846 0.156426036306368 73.4530508145117 
! Gamma         0                0                0                0                
! Port Impedance         50               0                50               0                
11.06                          0.160256091525561 73.0462716956406 0.986081164385436 163.255571252392 0.986081164385436 163.255571252392 0.160256091525561 73.0462716956406 
! Gamma         0                0                0                0                
! Port Impedance         50               0                50               0                
11.08                          0.164073064740817 72.6397839951223 0.985452841967558 162.844530240029 0.985452841967558 162.844530240029 0.164073064740817 72.6397839951222 
! Gamma         0                0                0                0                
! Port Impedance         50               0                50               0                
11.1                           0.167876694039491 72.2336144086903 0.984811636971436 162.434018020467 0.984811636971436 162.434018020467 0.167876694039491 72.2336144086902 
! Gamma         0                0                0                0                
! Port Impedance         50               0                50               0                
11.12                          0.171666721804085 71.8277879594299 0.984157723664311 162.024044909525 0.984157723664311 162.024044909525 0.171666721804085 71.8277879594298 
! Gamma         0                0                0                0                
! Port Impedance         50               0                50               0                
11.14                          0.175442894760626 71.4223281668254 0.983491278907738 161.614621055892 0.983491278907738 161.614621055892 0.175442894760625 71.4223281668255 
! Gamma         0                0                0                0                
! Port Impedance         50               0                50               0                
11.16                          0.179204964023952 71.0172571930821 0.982812482061762 161.205756438995 0.982812482061762 161.205756438995 0.179204964023952 71.0172571930822 
! Gamma         0                0                0                0                
! Port Impedance         50               0                50               0                
11.18                          0.182952685139879 70.6125959701949 0.98212151488869 160.797460866967 0.98212151488869 160.797460866967 0.182952685139879 70.612595970195  
! Gamma         0                0                0                0                
! Port Impedance         50               0                50               0                
11.2                           0.186685818124241 70.2083643106478 0.981418561456554 160.38974397473  0.981418561456554 160.38974397473  0.186685818124241 70.2083643106479 
! Gamma         0                0                0                0                
! Port Impedance         50               0                50               0                
11.22                          0.190404127498812 69.8045810041447 0.980703808042344 159.982615222173 0.980703808042344 159.982615222173 0.190404127498812 69.8045810041447 
! Gamma         0                0                0                0                
! Port Impedance         50               0                50               0                
11.24                          0.19410738232411 69.4012639023824 0.979977443035127 159.576083892446 0.979977443035127 159.576083892446 0.19410738232411 69.4012639023824 
! Gamma         0                0                0                0                
! Port Impedance         50               0                50               0                
11.26                          0.197795356229095 68.9984299935535 0.979239656839108 159.170159090353 0.979239656839109 159.170159090353 0.197795356229095 68.9984299935535 
! Gamma         0                0                0                0                
! Port Impedance         50               0                50               0                
11.28                          0.201467827437772 68.5960954680036 0.978490641776758 158.764849740851 0.978490641776758 158.764849740851 0.201467827437772 68.5960954680035 
! Gamma         0                0                0                0                
! Port Impedance         50               0                50               0                
11.3                           0.205124578792725 68.1942757762446 0.977730591992063 158.360164587655 0.977730591992063 158.360164587655 0.205124578792725 68.1942757762446 
! Gamma         0                0                0                0                
! Port Impedance         50               0                50               0                
11.32                          0.208765397775595 67.79298568035   0.976959703353997 157.956112191949 0.976959703353997 157.956112191949 0.208765397775595 67.79298568035   
! Gamma         0                0                0                0                
! Port Impedance         50               0                50               0                
11.34                          0.212390076524545 67.3922392996005 0.9761781733603  157.552700931195 0.9761781733603  157.552700931195 0.212390076524545 67.3922392996005 
! Gamma         0                0                0                0                
! Port Impedance         50               0                50               0                
11.36                          0.215998411848724 66.9920501511231 0.975386201041629 157.149938998051 0.97538620104163 157.149938998051 0.215998411848724 66.9920501511232 
! Gamma         0                0                0                0                
! Port Impedance         50               0                50               0                
11.38                          0.219590205239776 66.592431186165  0.97458398686619 156.747834399385 0.97458398686619 156.747834399385 0.219590205239775 66.592431186165  
! Gamma         0                0                0                0                
! Port Impedance         50               0                50               0                
11.4                           0.223165262880429 66.1933948225459 0.97377173264488 156.346394955395 0.97377173264488 156.346394955395 0.223165262880429 66.1933948225459 
! Gamma         0                0                0                0                
! Port Impedance         50               0                50               0                
11.42                          0.226723395650199 65.7949529737632 0.97294964143707 155.945628298826 0.97294964143707 155.945628298826 0.226723395650199 65.7949529737632 
! Gamma         0                0                0                0                
! Port Impedance         50               0                50               0                
11.44                          0.230264419128265 65.3971170751574 0.972117917457056 155.545541874287 0.972117917457057 155.545541874287 0.230264419128265 65.3971170751575 
! Gamma         0                0                0                0                
! Port Impedance         50               0                50               0                
11.46                          0.233788153593536 64.9998981074902 0.971276765981271 155.146142937663 0.971276765981271 155.146142937663 0.233788153593535 64.9998981074903 
! Gamma         0                0                0                0                
! Port Impedance         50               0                50               0                
11.48                          0.237294424021983 64.6033066182443 0.970426393256319 154.74743855563  0.970426393256319 154.74743855563  0.237294424021983 64.6033066182443 
! Gamma         0                0                0                0                
! Port Impedance         50               0                50               0                
11.5                           0.24078306008128 64.2073527409082 0.969567006407899 154.349435605258 0.969567006407899 154.349435605258 0.24078306008128 64.2073527409083 
! Gamma         0                0                0                0                
! Port Impedance         50               0                50               0                
11.52                          0.24425389612279 63.8120462124827 0.968698813350681 153.952140773712 0.968698813350681 153.952140773712 0.244253896122791 63.8120462124827 
! Gamma         0                0                0                0                
! Port Impedance         50               0                50               0                
11.54                          0.247706771170976 63.4173963894091 0.967822022699191 153.55556055804  0.967822022699191 153.55556055804  0.247706771170976 63.4173963894091 
! Gamma         0                0                0                0                
! Port Impedance         50               0                50               0                
11.56                          0.251141528910264 63.0234122621002 0.966936843679767 153.159701265062 0.966936843679767 153.159701265062 0.251141528910264 63.0234122621002 
! Gamma         0                0                0                0                
! Port Impedance         50               0                50               0                
11.58                          0.254558017669455 62.6301024682281 0.966043486043642 152.764569011337 0.966043486043641 152.764569011337 0.254558017669456 62.6301024682281 
! Gamma         0                0                0                0                
! Port Impedance         50               0                50               0                
11.6                           0.2579560904037  62.2374753049074 0.965142159981197 152.370169723222 0.965142159981197 152.370169723222 0.257956090403701 62.2374753049073 
! Gamma         0                0                0                0                
! Port Impedance         50               0                50               0                
11.62                          0.261335604674132 61.8455387398957 0.96423307603746 151.97650913702  0.96423307603746 151.97650913702  0.261335604674132 61.8455387398957 
! Gamma         0                0                0                0                
! Port Impedance         50               0                50               0                
11.64                          0.26469642262521 61.4543004219151 0.963316445028859 151.583592799207 0.963316445028859 151.583592799206 0.26469642262521 61.4543004219151 
! Gamma         0                0                0                0                
! Port Impedance         50               0                50               0                
11.66                          0.268038410959824 61.0637676901929 0.962392477961312 151.191426066743 0.962392477961312 151.191426066743 0.268038410959824 61.0637676901929 
! Gamma         0                0                0                0                
! Port Impedance         50               0                50               0                
11.68                          0.27136144091225 60.6739475833019 0.961461385949671 150.800014107467 0.961461385949671 150.800014107467 0.27136144091225 60.6739475833019 
! Gamma         0                0                0                0                
! Port Impedance         50               0                50               0                
11.7                           0.274665388218995 60.2848468473759 0.960523380138578 150.409361900561 0.960523380138578 150.409361900561 0.274665388218996 60.2848468473759 
! Gamma         0                0                0                0                
! Port Impedance         50               0                50               0                
11.72                          0.277950133087618 59.8964719437652 0.959578671624753 150.019474237105 0.959578671624753 150.019474237105 0.277950133087618 59.8964719437652 
! Gamma         0                0                0                0                
! Port Impedance         50               0                50               0                
11.74                          0.281215560163579 59.5088290561906 0.958627471380764 149.630355720693 0.958627471380764 149.630355720693 0.281215560163579 59.5088290561906 
! Gamma         0                0                0                0                
! Port Impedance         50               0                50               0                
11.76                          0.284461558495196 59.121924097448  0.957669990180301 149.242010768129 0.957669990180301 149.242010768129 0.284461558495196 59.121924097448  
! Gamma         0                0                0                0                
! Port Impedance         50               0                50               0                
11.78                          0.287688021496769 58.7357627157092 0.95670643852499 148.854443610195 0.95670643852499 148.854443610195 0.287688021496769 58.7357627157092 
! Gamma         0                0                0                0                
! Port Impedance         50               0                50               0                
11.8                           0.290894846909943 58.3503503004601 0.955737026572774 148.46765829248  0.955737026572774 148.46765829248  0.290894846909943 58.3503503004601 
! Gamma         0                0                0                0                
! Port Impedance         50               0                50               0                
11.82                          0.294081936763371 57.9656919881139 0.954761964067875 148.08165867629  0.954761964067875 148.08165867629  0.294081936763371 57.9656919881139 
! Gamma         0                0                0                0                
! Port Impedance         50               0                50               0                
11.84                          0.297249197330763 57.5817926673304 0.953781460272377 147.696448439602 0.953781460272376 147.696448439602 0.297249197330764 57.5817926673304 
! Gamma         0                0                0                0                
! Port Impedance         50               0                50               0                
11.86                          0.300396539087368 57.1986569840719 0.952795723899437 147.312031078102 0.952795723899437 147.312031078102 0.300396539087368 57.1986569840719 
! Gamma         0                0                0                0                
! Port Impedance         50               0                50               0                
11.88                          0.30352387666497 56.8162893464215 0.951804963048151 146.928409906272 0.951804963048151 146.928409906272 0.30352387666497 56.8162893464214 
! Gamma         0                0                0                0                
! Port Impedance         50               0                50               0                
11.9                           0.30663112880546 56.4346939291872 0.950809385140072 146.545588058535 0.950809385140072 146.545588058535 0.30663112880546 56.4346939291873 
! Gamma         0                0                0                0                
! Port Impedance         50               0                50               0                
11.92                          0.309718218313064 56.0538746783128 0.949809196857425 146.16356849046  0.949809196857425 146.16356849046  0.309718218313065 56.0538746783128 
! Gamma         0                0                0                0                
! Port Impedance         50               0                50               0                
11.94                          0.312785072005277 55.6738353151134 0.948804604082994 145.782353980024 0.948804604082994 145.782353980024 0.312785072005277 55.6738353151134 
! Gamma         0                0                0                0                
! Port Impedance         50               0                50               0                
11.96                          0.315831620662575 55.2945793403543 0.947795811841716 145.401947128917 0.947795811841716 145.401947128917 0.315831620662575 55.2945793403543 
! Gamma         0                0                0                0                
! Port Impedance         50               0                50               0                
11.98                          0.318857798976986 54.9161100381866 0.946783024243979 145.022350363911 0.946783024243979 145.022350363911 0.318857798976986 54.9161100381865 
! Gamma         0                0                0                0                
! Port Impedance         50               0                50               0                
12                             0.321863545499565 54.5384304799528 0.945766444430625 144.64356593826  0.945766444430625 144.64356593826  0.321863545499565 54.5384304799528 
! Gamma         0                0                0                0                
! Port Impedance         50               0                50               0                
12.02                          0.324848802586849 54.1615435278768 0.944746274519671 144.265595933164 0.944746274519672 144.265595933164 0.324848802586849 54.1615435278769 
! Gamma         0                0                0                0                
! Port Impedance         50               0                50               0                
12.04                          0.327813516346358 53.7854518386461 0.943722715554737 143.888442259266 0.943722715554737 143.888442259266 0.327813516346357 53.7854518386461 
! Gamma         0                0                0                0                
! Port Impedance         50               0                50               0                
12.06                          0.330757636581198 53.4101578668973 0.942695967455184 143.51210665819  0.942695967455184 143.51210665819  0.330757636581198 53.4101578668973 
! Gamma         0                0                0                0                
! Port Impedance         50               0                50               0                
12.08                          0.333681116733838 53.0356638686145 0.94166622896797 143.136590704128 0.94166622896797 143.136590704128 0.333681116733838 53.0356638686145 
! Gamma         0                0                0                0                
! Port Impedance         50               0                50               0                
12.1                           0.33658391382911 52.6619719044464 0.940633697621195 142.761895805456 0.940633697621195 142.761895805456 0.33658391382911 52.6619719044464 
! Gamma         0                0                0                0                
! Port Impedance         50               0                50               0                
12.12                          0.339465988416507 52.2890838429505 0.93959856967936 142.388023206394 0.939598569679359 142.388023206394 0.339465988416507 52.2890838429505 
! Gamma         0                0                0                0                
! Port Impedance         50               0                50               0                
12.14                          0.34232730451183 51.9170013637698 0.938561040100295 142.014973988692 0.938561040100295 142.014973988692 0.34232730451183 51.9170013637698 
! Gamma         0                0                0                0                
! Port Impedance         50               0                50               0                
12.16                          0.345167829538242 51.545725960748  0.93752130249379 141.642749073354 0.93752130249379 141.642749073354 0.345167829538242 51.545725960748  
! Gamma         0                0                0                0                
! Port Impedance         50               0                50               0                
12.18                          0.347987534266793 51.1752589449878 0.936479549081868 141.271349222392 0.936479549081868 141.271349222392 0.347987534266794 51.1752589449878 
! Gamma         0                0                0                0                
! Port Impedance         50               0                50               0                
12.2                           0.350786392756466 50.8056014478571 0.935435970660743 140.900775040604 0.935435970660743 140.900775040604 0.350786392756466 50.8056014478571 
! Gamma         0                0                0                0                
! Port Impedance         50               0                50               0                
12.22                          0.353564382293797 50.4367544239466 0.934390756564388 140.531026977383 0.934390756564388 140.531026977383 0.353564382293797 50.4367544239466 
! Gamma         0                0                0                0                
! Port Impedance         50               0                50               0                
12.24                          0.356321483332138 50.0687186539821 0.933344094629761 140.16210532855  0.933344094629761 140.16210532855  0.356321483332138 50.0687186539821 
! Gamma         0                0                0                0                
! Port Impedance         50               0                50               0                
12.26                          0.359057679430592 49.7014947476954 0.932296171163616 139.794010238208 0.932296171163616 139.794010238208 0.359057679430592 49.7014947476954 
! Gamma         0                0                0                0                
! Port Impedance         50               0                50               0                
12.28                          0.361772957192696 49.335083146656  0.931247170910925 139.426741700617 0.931247170910925 139.426741700617 0.361772957192696 49.335083146656  
! Gamma         0                0                0                0                
! Port Impedance         50               0                50               0                
12.3                           0.364467306204879 48.9694841270652 0.930197277024862 139.060299562092 0.930197277024862 139.060299562092 0.364467306204879 48.9694841270652 
! Gamma         0                0                0                0                
! Port Impedance         50               0                50               0                
12.32                          0.367140718974759 48.6046978025172 0.929146671038345 138.694683522914 0.929146671038345 138.694683522914 0.367140718974759 48.6046978025171 
! Gamma         0                0                0                0                
! Port Impedance         50               0                50               0                
12.34                          0.369793190869328 48.2407241267249 0.928095532837119 138.329893139263 0.928095532837119 138.329893139263 0.369793190869328 48.2407241267249 
! Gamma         0                0                0                0                
! Port Impedance         50               0                50               0                
12.36                          0.372424720053052 47.8775628962174 0.927044040634337 137.965927825154 0.927044040634337 137.965927825154 0.372424720053052 47.8775628962175 
! Gamma         0                0                0                0                
! Port Impedance         50               0                50               0                
12.38                          0.375035307425955 47.5152137530053 0.925992370946641 137.602786854404 0.925992370946642 137.602786854404 0.375035307425955 47.5152137530053 
! Gamma         0                0                0                0                
! Port Impedance         50               0                50               0                
12.4                           0.377624956561712 47.1536761872182 0.92494069857171 137.240469362589 0.924940698571709 137.240469362589 0.377624956561712 47.1536761872182 
! Gamma         0                0                0                0                
! Port Impedance         50               0                50               0                
12.42                          0.380193673645798 46.7929495397158 0.923889196567237 136.878974349029 0.923889196567237 136.878974349029 0.380193673645798 46.7929495397158 
! Gamma         0                0                0                0                
! Port Impedance         50               0                50               0                
12.44                          0.382741467413741 46.4330330046701 0.922838036231342 136.518300678769 0.922838036231342 136.518300678769 0.382741467413741 46.4330330046701 
! Gamma         0                0                0                0                
! Port Impedance         50               0                50               0                
12.46                          0.385268349089505 46.0739256321243 0.921787387084363 136.158447084574 0.921787387084363 136.158447084574 0.385268349089505 46.0739256321243 
! Gamma         0                0                0                0                
! Port Impedance         50               0                50               0                
12.48                          0.387774332324052 45.715626330524  0.92073741685202 135.799412168923 0.92073741685202 135.799412168923 0.387774332324052 45.715626330524  
! Gamma         0                0                0                0                
! Port Impedance         50               0                50               0                
12.5                           0.390259433134107 45.3581338692255 0.919688291449913 135.441194406016 0.919688291449914 135.441194406016 0.390259433134107 45.3581338692255 
! Gamma         0                0                0                0                
! Port Impedance         50               0                50               0                
12.52                          0.392723669841178 45.0014468809791 0.918640174969343 135.08379214377  0.918640174969343 135.08379214377  0.392723669841178 45.0014468809792 
! Gamma         0                0                0                0                
! Port Impedance         50               0                50               0                
12.54                          0.395167063010848 44.6455638643883 0.917593229664403 134.727203605832 0.917593229664403 134.727203605832 0.395167063010847 44.6455638643883 
! Gamma         0                0                0                0                
! Port Impedance         50               0                50               0                
12.56                          0.397589635392374 44.2904831863458 0.916547615940343 134.37142689358  0.916547615940343 134.37142689358  0.397589635392374 44.2904831863458 
! Gamma         0                0                0                0                
! Port Impedance         50               0                50               0                
12.58                          0.39999141185864 43.9362030844457 0.915503492343154 134.016459988126 0.915503492343154 134.016459988126 0.39999141185864 43.9362030844457 
! Gamma         0                0                0                0                
! Port Impedance         50               0                50               0                
12.6                           0.402372419346467 43.5827216693725 0.914461015550356 133.662300752323 0.914461015550356 133.662300752323 0.402372419346467 43.5827216693725 
! Gamma         0                0                0                0                
! Port Impedance         50               0                50               0                
12.62                          0.404732686797326 43.230036927267  0.913420340362962 133.308946932757 0.913420340362962 133.308946932757 0.404732686797326 43.230036927267  
! Gamma         0                0                0                0                
! Port Impedance         50               0                50               0                
12.64                          0.407072245098481 42.8781467220687 0.91238161969858 132.956396161743 0.91238161969858 132.956396161743 0.407072245098481 42.8781467220687 
! Gamma         0                0                0                0                
! Port Impedance         50               0                50               0                
12.66                          0.409391127024579 42.5270487978353 0.911345004585638 132.604645959315 0.911345004585638 132.604645959315 0.409391127024579 42.5270487978354 
! Gamma         0                0                0                0                
! Port Impedance         50               0                50               0                
12.68                          0.411689367179712 42.1767407810391 0.910310644158686 132.253693735201 0.910310644158687 132.253693735201 0.411689367179712 42.1767407810391 
! Gamma         0                0                0                0                
! Port Impedance         50               0                50               0                
12.7                           0.413967001939983 41.8272201828396 0.909278685654769 131.903536790803 0.909278685654769 131.903536790803 0.413967001939983 41.8272201828396 
! Gamma         0                0                0                0                
! Port Impedance         50               0                50               0                
12.72                          0.416224069396586 41.4784844013335 0.90824927441081 131.554172321157 0.90824927441081 131.554172321157 0.416224069396586 41.4784844013335 
! Gamma         0                0                0                0                
! Port Impedance         50               0                50               0                
12.74                          0.418460609299427 41.1305307237807 0.907222553862007 131.205597416888 0.907222553862008 131.205597416888 0.418460609299427 41.1305307237808 
! Gamma         0                0                0                0                
! Port Impedance         50               0                50               0                
12.76                          0.42067666300131 40.7833563288072 0.9061986655412  130.857809066157 0.9061986655412  130.857809066157 0.42067666300131 40.7833563288073 
! Gamma         0                0                0                0                
! Port Impedance         50               0                50               0                
12.78                          0.42287227340269 40.4369582885841 0.905177749079164 130.51080415659  0.905177749079164 130.51080415659  0.42287227340269 40.4369582885841 
! Gamma         0                0                0                0                
! Port Impedance         50               0                50               0                
12.8                           0.425047484897029 40.0913335709825 0.904159942205835 130.164579477202 0.904159942205835 130.164579477202 0.425047484897029 40.0913335709825 
! Gamma         0                0                0                0                
! Port Impedance         50               0                50               0                
12.82                          0.427202343316755 39.7464790417051 0.903145380752404 129.819131720302 0.903145380752404 129.819131720302 0.427202343316755 39.7464790417051 
! Gamma         0                0                0                0                
! Port Impedance         50               0                50               0                
12.84                          0.429336895879852 39.4023914663933 0.902134198654276 129.474457483391 0.902134198654277 129.474457483391 0.429336895879852 39.4023914663933 
! Gamma         0                0                0                0                
! Port Impedance         50               0                50               0                
12.86                          0.431451191137084 39.0590675127101 0.901126527954852 129.130553271037 0.901126527954852 129.130553271037 0.431451191137083 39.0590675127101 
! Gamma         0                0                0                0                
! Port Impedance         50               0                50               0                
12.88                          0.433545278919868 38.7165037523989 0.900122498810105 128.78741549674  0.900122498810105 128.78741549674  0.433545278919868 38.7165037523989 
! Gamma         0                0                0                0                
! Port Impedance         50               0                50               0                
12.9                           0.43561921028882 38.3746966633171 0.899122239493942 128.445040484786 0.899122239493942 128.445040484786 0.43561921028882 38.3746966633171 
! Gamma         0                0                0                0                
! Port Impedance         50               0                50               0                
12.92                          0.437673037482957 38.0336426314459 0.89812587640429 128.103424472071 0.89812587640429 128.103424472071 0.437673037482956 38.0336426314459 
! Gamma         0                0                0                0                
! Port Impedance         50               0                50               0                
12.94                          0.439706813869597 37.6933379528744 0.897133534069916 127.762563609925 0.897133534069915 127.762563609925 0.439706813869598 37.6933379528744 
! Gamma         0                0                0                0                
! Port Impedance         50               0                50               0                
12.96                          0.441720593894945 37.3537788357595 0.896145335157919 127.422453965902 0.896145335157919 127.422453965902 0.441720593894945 37.3537788357595 
! Gamma         0                0                0                0                
! Port Impedance         50               0                50               0                
12.98                          0.443714433035372 37.0149614022602 0.895161400481905 127.083091525567 0.895161400481905 127.083091525567 0.443714433035372 37.0149614022602 
! Gamma         0                0                0                0                
! Port Impedance         50               0                50               0                
13                             0.445688387749412 36.6768816904469 0.894181849010775 126.744472194253 0.894181849010775 126.744472194253 0.445688387749412 36.6768816904469 
! Gamma         0                0                0                0                
! Port Impedance         50               0                50               0                
13.02                          0.447642515430458 36.3395356561856 0.893206797878143 126.406591798805 0.893206797878143 126.406591798805 0.447642515430459 36.3395356561856 
! Gamma         0                0                0                0                
! Port Impedance         50               0                50               0                
13.04                          0.449576874360187 36.0029191749962 0.892236362392322 126.069446089304 0.892236362392322 126.069446089304 0.449576874360188 36.0029191749961 
! Gamma         0                0                0                0                
! Port Impedance         50               0                50               0                
13.06                          0.451491523662702 35.6670280438853 0.891270656046886 125.73303074077  0.891270656046886 125.73303074077  0.451491523662702 35.6670280438853 
! Gamma         0                0                0                0                
! Port Impedance         50               0                50               0                
13.08                          0.45338652325939 35.3318579831545 0.890309790531748 125.397341354843 0.890309790531748 125.397341354843 0.45338652325939 35.3318579831546 
! Gamma         0                0                0                0                
! Port Impedance         50               0                50               0                
13.1                           0.455261933824531 34.9974046381814 0.889353875744766 125.062373461453 0.889353875744766 125.062373461453 0.455261933824531 34.9974046381814 
! Gamma         0                0                0                0                
! Port Impedance         50               0                50               0                
13.12                          0.457117816741611 34.6636635811758 0.888403019803817 124.728122520452 0.888403019803817 124.728122520452 0.457117816741611 34.6636635811758 
! Gamma         0                0                0                0                
! Port Impedance         50               0                50               0                
13.14                          0.458954234060388 34.3306303129105 0.887457329059351 124.394583923245 0.887457329059351 124.394583923245 0.458954234060388 34.3306303129104 
! Gamma         0                0                0                0                
! Port Impedance         50               0                50               0                
13.16                          0.460771248454677 33.9983002644252 0.886516908107366 124.061752994385 0.886516908107366 124.061752994385 0.460771248454677 33.9983002644252 
! Gamma         0                0                0                0                
! Port Impedance         50               0                50               0                
13.18                          0.462568923180879 33.6666687987055 0.885581859802818 123.729624993149 0.885581859802817 123.729624993149 0.462568923180879 33.6666687987056 
! Gamma         0                0                0                0                
! Port Impedance         50               0                50               0                
13.2                           0.464347322037229 33.3357312123361 0.884652285273405 123.398195115102 0.884652285273405 123.398195115102 0.464347322037229 33.3357312123361 
! Gamma         0                0                0                0                
! Port Impedance         50               0                50               0                
13.22                          0.466106509323792 33.0054827371269 0.883728283933741 123.067458493623 0.883728283933741 123.067458493623 0.466106509323792 33.0054827371269 
! Gamma         0                0                0                0                
! Port Impedance         50               0                50               0                
13.24                          0.467846549803176 32.6759185417148 0.88280995349987 122.737410201423 0.88280995349987 122.737410201423 0.467846549803177 32.6759185417148 
! Gamma         0                0                0                0                
! Port Impedance         50               0                50               0                
13.26                          0.46956750866198 32.3470337331391 0.881897390004113 122.408045252036 0.881897390004113 122.408045252036 0.46956750866198 32.3470337331391 
! Gamma         0                0                0                0                
! Port Impedance         50               0                50               0                
13.28                          0.471269451472963 32.0188233583905 0.880990687810223 122.07935860128  0.880990687810223 122.07935860128  0.471269451472963 32.0188233583906 
! Gamma         0                0                0                0                
! Port Impedance         50               0                50               0                
13.3                           0.472952444157936 31.6912824059362 0.880089939628831 121.751345148709 0.880089939628831 121.751345148709 0.472952444157936 31.6912824059362 
! Gamma         0                0                0                0                
! Port Impedance         50               0                50               0                
13.32                          0.47461655295138 31.3644058072162 0.879195236533162 121.423999739035 0.879195236533162 121.423999739035 0.47461655295138 31.3644058072162 
! Gamma         0                0                0                0                
! Port Impedance         50               0                50               0                
13.34                          0.476261844364768 31.0381884381176 0.878306667974998 121.097317163522 0.878306667974999 121.097317163522 0.476261844364768 31.0381884381176 
! Gamma         0                0                0                0                
! Port Impedance         50               0                50               0                
13.36                          0.477888385151603 30.7126251204208 0.87742432180088 120.77129216137  0.87742432180088 120.77129216137  0.477888385151604 30.7126251204208 
! Gamma         0                0                0                0                
! Port Impedance         50               0                50               0                
13.38                          0.479496242273163 30.3877106232213 0.87654828426851 120.445919421065 0.87654828426851 120.445919421065 0.479496242273162 30.3877106232213 
! Gamma         0                0                0                0                
! Port Impedance         50               0                50               0                
13.4                           0.481085482864938 30.063439664326  0.87567864006337 120.121193581714 0.87567864006337 120.121193581714 0.481085482864938 30.0634396643259 
! Gamma         0                0                0                0                
! Port Impedance         50               0                50               0                
13.42                          0.482656174203777 29.739806911624  0.874815472315499 119.797109234351 0.874815472315499 119.797109234351 0.482656174203777 29.739806911624  
! Gamma         0                0                0                0                
! Port Impedance         50               0                50               0                
13.44                          0.484208383675708 29.4168069844333 0.873958862616447 119.473660923223 0.873958862616447 119.473660923223 0.484208383675707 29.4168069844333 
! Gamma         0                0                0                0                
! Port Impedance         50               0                50               0                
13.46                          0.485742178744448 29.0944344548207 0.873108891036363 119.150843147055 0.873108891036363 119.150843147055 0.485742178744448 29.0944344548207 
! Gamma         0                0                0                0                
! Port Impedance         50               0                50               0                
13.48                          0.487257626920593 28.772683848899  0.872265636141226 118.828650360289 0.872265636141226 118.828650360289 0.487257626920593 28.772683848899  
! Gamma         0                0                0                0                
! Port Impedance         50               0                50               0                
13.5                           0.488754795731469 28.4515496480977 0.871429175010178 118.507076974305 0.871429175010178 118.507076974305 0.488754795731469 28.4515496480977 
! Gamma         0                0                0                0                
! Port Impedance         50               0                50               0                
13.52                          0.490233752691654 28.1310262904103 0.870599583252962 118.18611735861  0.870599583252962 118.18611735861  0.490233752691654 28.1310262904103 
! Gamma         0                0                0                0                
! Port Impedance         50               0                50               0                
13.54                          0.491694565274145 27.8111081716171 0.869776935027448 117.865765842017 0.869776935027448 117.865765842017 0.491694565274145 27.8111081716171 
! Gamma         0                0                0                0                
! Port Impedance         50               0                50               0                
13.56                          0.493137300882185 27.491789646483  0.868961303057222 117.546016713794 0.868961303057222 117.546016713794 0.493137300882185 27.491789646483  
! Gamma         0                0                0                0                
! Port Impedance         50               0                50               0                
13.58                          0.494562026821722 27.1730650299323 0.868152758649237 117.226864224787 0.868152758649237 117.226864224787 0.494562026821722 27.1730650299323 
! Gamma         0                0                0                0                
! Port Impedance         50               0                50               0                
13.6                           0.495968810274501 26.8549285981993 0.867351371711511 116.908302588534 0.867351371711511 116.908302588534 0.495968810274501 26.8549285981993 
! Gamma         0                0                0                0                
! Port Impedance         50               0                50               0                
13.62                          0.497357718271783 26.5373745899553 0.866557210770849 116.590325982343 0.866557210770849 116.590325982343 0.497357718271783 26.5373745899553 
! Gamma         0                0                0                0                
! Port Impedance         50               0                50               0                
13.64                          0.498728817668678 26.2203972074118 0.865770342990583 116.272928548355 0.865770342990583 116.272928548355 0.498728817668678 26.2203972074118 
! Gamma         0                0                0                0                
! Port Impedance         50               0                50               0                
13.66                          0.500082175119086 25.9039906174014 0.86499083418833 115.956104394585 0.864990834188331 115.956104394585 0.500082175119086 25.9039906174014 
! Gamma         0                0                0                0                
! Port Impedance         50               0                50               0                
13.68                          0.501417857051237 25.5881489524347 0.864218748853732 115.639847595943 0.864218748853731 115.639847595943 0.501417857051237 25.5881489524348 
! Gamma         0                0                0                0                
! Port Impedance         50               0                50               0                
13.7                           0.502735929643826 25.2728663117353 0.863454150166181 115.324152195225 0.863454150166181 115.324152195225 0.502735929643826 25.2728663117353 
! Gamma         0                0                0                0                
! Port Impedance         50               0                50               0                
13.72                          0.504036458802719 24.9581367622515 0.862697100012529 115.009012204093 0.862697100012529 115.009012204093 0.504036458802719 24.9581367622515 
! Gamma         0                0                0                0                
! Port Impedance         50               0                50               0                
13.74                          0.505319510138244 24.6439543396465 0.861947659004744 114.694421604029 0.861947659004744 114.694421604029 0.505319510138245 24.6439543396465 
! Gamma         0                0                0                0                
! Port Impedance         50               0                50               0                
13.76                          0.506585148943043 24.330313049266  0.861205886497527 114.380374347271 0.861205886497528 114.380374347271 0.506585148943043 24.330313049266  
! Gamma         0                0                0                0                
! Port Impedance         50               0                50               0                
13.78                          0.507833440170473 24.0172068670838 0.860471840605874 114.066864357721 0.860471840605874 114.066864357721 0.507833440170472 24.0172068670838 
! Gamma         0                0                0                0                
! Port Impedance         50               0                50               0                
13.8                           0.509064448413562 23.7046297406266 0.859745578222559 113.753885531841 0.859745578222559 113.753885531841 0.509064448413562 23.7046297406267 
! Gamma         0                0                0                0                
! Port Impedance         50               0                50               0                
13.82                          0.510278237884498 23.3925755898771 0.859027155035557 113.441431739527 0.859027155035558 113.441431739527 0.510278237884498 23.3925755898771 
! Gamma         0                0                0                0                
! Port Impedance         50               0                50               0                
13.84                          0.51147487239465 23.0810383081551 0.858316625545369 113.129496824957 0.858316625545369 113.129496824957 0.51147487239465 23.0810383081551 
! Gamma         0                0                0                0                
! Port Impedance         50               0                50               0                
13.86                          0.512654415335101 22.77001176298   0.857614043082258 112.818074607426 0.857614043082257 112.818074607426 0.512654415335101 22.77001176298   
! Gamma         0                0                0                0                
! Port Impedance         50               0                50               0                
13.88                          0.5138169296577  22.4594897969105 0.856919459823387 112.507158882159 0.856919459823387 112.507158882159 0.5138169296577  22.4594897969105 
! Gamma         0                0                0                0                
! Port Impedance         50               0                50               0                
13.9                           0.514962477856609 22.1494662283653 0.856232926809847 112.196743421105 0.856232926809847 112.196743421105 0.514962477856609 22.1494662283653 
! Gamma         0                0                0                0                
! Port Impedance         50               0                50               0                
13.92                          0.516091121950346 21.8399348524236 0.855554493963563 111.886821973707 0.855554493963563 111.886821973707 0.516091121950346 21.8399348524236 
! Gamma         0                0                0                0                
! Port Impedance         50               0                50               0                
13.94                          0.517202923464312 21.5308894416053 0.854884210104081 111.577388267663 0.854884210104081 111.577388267663 0.517202923464312 21.5308894416053 
! Gamma         0                0                0                0                
! Port Impedance         50               0                50               0                
13.96                          0.518297943413785 21.222323746633  0.85422212296523 111.26843600966  0.85422212296523 111.26843600966  0.518297943413785 21.222323746633  
! Gamma         0                0                0                0                
! Port Impedance         50               0                50               0                
13.98                          0.519376242287388 20.9142314971733 0.853568279211634 110.95995888609  0.853568279211634 110.95995888609  0.519376242287387 20.9142314971733 
! Gamma         0                0                0                0                
! Port Impedance         50               0                50               0                
14                             0.520437880031005 20.6066064025603 0.852922724455092 110.651950563756 0.852922724455093 110.651950563756 0.520437880031005 20.6066064025603 
! Gamma         0                0                0                0                
! Port Impedance         50               0                50               0                
14.02                          0.521482916032155 20.2994421525002 0.852285503270806 110.344404690547 0.852285503270806 110.344404690547 0.521482916032156 20.2994421525002 
! Gamma         0                0                0                0                
! Port Impedance         50               0                50               0                
14.04                          0.522511409104792 19.9927324177574 0.85165665921345 110.037314896107 0.85165665921345 110.037314896107 0.522511409104793 19.9927324177574 
! Gamma         0                0                0                0                
! Port Impedance         50               0                50               0                
14.06                          0.523523417474543 19.6864708508223 0.851036234833084 109.730674792484 0.851036234833084 109.730674792484 0.523523417474543 19.6864708508223 
! Gamma         0                0                0                0                
! Port Impedance         50               0                50               0                
14.08                          0.524518998764362 19.3806510865625 0.850424271690902 109.424477974752 0.850424271690902 109.424477974752 0.524518998764361 19.3806510865625 
! Gamma         0                0                0                0                
! Port Impedance         50               0                50               0                
14.1                           0.525498209980602 19.0752667428549 0.849820810374801 109.118718021632 0.849820810374802 109.118718021632 0.525498209980602 19.0752667428549 
! Gamma         0                0                0                0                
! Port Impedance         50               0                50               0                
14.12                          0.526461107499485 18.7703114212019 0.849225890514792 108.813388496084 0.849225890514792 108.813388496084 0.526461107499486 18.7703114212019 
! Gamma         0                0                0                0                
! Port Impedance         50               0                50               0                
14.14                          0.527407747053971 18.46577870733   0.848639550798211 108.50848294589  0.84863955079821 108.50848294589  0.527407747053971 18.46577870733   
! Gamma         0                0                0                0                
! Port Impedance         50               0                50               0                
14.16                          0.528338183721005 18.1616621717722 0.848061828984757 108.203994904213 0.848061828984757 108.203994904213 0.528338183721005 18.1616621717722 
! Gamma         0                0                0                0                
! Port Impedance         50               0                50               0                
14.18                          0.529252471909159 17.8579553704337 0.847492761921347 107.899917890152 0.847492761921347 107.899917890152 0.529252471909159 17.8579553704337 
! Gamma         0                0                0                0                
! Port Impedance         50               0                50               0                
14.2                           0.530150665346627 17.5546518451418 0.846932385556764 107.596245409267 0.846932385556765 107.596245409267 0.530150665346628 17.5546518451418 
! Gamma         0                0                0                0                
! Port Impedance         50               0                50               0                
14.22                          0.531032817069593 17.2517451241796 0.846380734956121 107.292970954103 0.846380734956121 107.292970954103 0.531032817069594 17.2517451241796 
! Gamma         0                0                0                0                
! Port Impedance         50               0                50               0                
14.24                          0.531898979410945 16.9492287228055 0.845837844315121 106.990088004688 0.845837844315121 106.990088004688 0.531898979410946 16.9492287228055 
! Gamma         0                0                0                0                
! Port Impedance         50               0                50               0                
14.26                          0.532749203989341 16.6470961437558 0.845303746974116 106.687590029022 0.845303746974116 106.687590029022 0.532749203989341 16.6470961437558 
! Gamma         0                0                0                0                
! Port Impedance         50               0                50               0                
14.28                          0.533583541698611 16.3453408777338 0.844778475431959 106.38547048355  0.844778475431959 106.38547048355  0.533583541698611 16.3453408777337 
! Gamma         0                0                0                0                
! Port Impedance         50               0                50               0                
14.3                           0.534402042697487 16.043956403883  0.844262061359646 106.08372281362  0.844262061359646 106.08372281362  0.534402042697487 16.043956403883  
! Gamma         0                0                0                0                
! Port Impedance         50               0                50               0                
14.32                          0.53520475639966 15.7429361902476 0.843754535613751 105.782340453928 0.843754535613751 105.782340453928 0.535204756399661 15.7429361902476 
! Gamma         0                0                0                0                
! Port Impedance         50               0                50               0                
14.34                          0.53599173146415 15.4422736942179 0.843255928249643 105.48131682895  0.843255928249643 105.48131682895  0.53599173146415 15.4422736942179 
! Gamma         0                0                0                0                
! Port Impedance         50               0                50               0                
14.36                          0.536763015785979 15.1419623629615 0.842766268534486 105.180645353362 0.842766268534486 105.180645353362 0.53676301578598 15.1419623629615 
! Gamma         0                0                0                0                
! Port Impedance         50               0                50               0                
14.38                          0.537518656487157 14.8419956338426 0.842285584960024 104.880319432438 0.842285584960024 104.880319432438 0.537518656487157 14.8419956338426 
! Gamma         0                0                0                0                
! Port Impedance         50               0                50               0                
14.4                           0.538258699907946 14.5423669348267 0.841813905255138 104.580332462449 0.841813905255138 104.580332462449 0.538258699907946 14.5423669348267 
! Gamma         0                0                0                0                
! Port Impedance         50               0                50               0                
14.42                          0.538983191598422 14.2430696848731 0.841351256398189 104.280677831038 0.841351256398189 104.280677831038 0.538983191598422 14.2430696848731 
! Gamma         0                0                0                0                
! Port Impedance         50               0                50               0                
14.44                          0.539692176310311 13.9440972943145 0.840897664629127 103.98134891759  0.840897664629127 103.98134891759  0.53969217631031 13.9440972943145 
! Gamma         0                0                0                0                
! Port Impedance         50               0                50               0                
14.46                          0.5403856979891  13.6454431652247 0.840453155461375 103.682339093583 0.840453155461375 103.682339093583 0.540385697989101 13.6454431652247 
! Gamma         0                0                0                0                
! Port Impedance         50               0                50               0                
14.48                          0.541063799766416 13.3471006917734 0.840017753693493 103.383641722934 0.840017753693493 103.383641722934 0.541063799766417 13.3471006917734 
! Gamma         0                0                0                0                
! Port Impedance         50               0                50               0                
14.5                           0.541726523952655 13.0490632605706 0.839591483420597 103.085250162332 0.839591483420597 103.085250162332 0.541726523952654 13.0490632605706 
! Gamma         0                0                0                0                
! Port Impedance         50               0                50               0                
14.52                          0.542373912029872 12.751324250998  0.839174368045557 102.787157761556 0.839174368045557 102.787157761556 0.542373912029872 12.751324250998  
! Gamma         0                0                0                0                
! Port Impedance         50               0                50               0                
14.54                          0.543006004644926 12.45387703553   0.838766430289958 102.489357863782 0.838766430289959 102.489357863782 0.543006004644927 12.45387703553   
! Gamma         0                0                0                0                
! Port Impedance         50               0                50               0                
14.56                          0.543622841602847 12.1567149800439 0.838367692204832 102.19184380589  0.838367692204832 102.19184380589  0.543622841602846 12.1567149800439 
! Gamma         0                0                0                0                
! Port Impedance         50               0                50               0                
14.58                          0.544224461860449 11.8598314441191 0.837978175181141 101.894608918744 0.83797817518114 101.894608918744 0.544224461860449 11.8598314441191 
! Gamma         0                0                0                0                
! Port Impedance         50               0                50               0                
14.6                           0.544810903520175 11.5632197813254 0.837597899960037 101.597646527474 0.837597899960037 101.597646527474 0.544810903520175 11.5632197813254 
! Gamma         0                0                0                0                
! Port Impedance         50               0                50               0                
14.62                          0.545382203824158 11.2668733395027 0.837226886642883 101.300949951742 0.837226886642883 101.300949951742 0.545382203824158 11.2668733395027 
! Gamma         0                0                0                0                
! Port Impedance         50               0                50               0                
14.64                          0.545938399148504 10.9707854610291 0.836865154701025 101.004512506006 0.836865154701025 101.004512506006 0.545938399148504 10.9707854610291 
! Gamma         0                0                0                0                
! Port Impedance         50               0                50               0                
14.66                          0.546479524997783 10.6749494830807 0.836512722985335 100.708327499763 0.836512722985335 100.708327499763 0.546479524997783 10.6749494830807 
! Gamma         0                0                0                0                
! Port Impedance         50               0                50               0                
14.68                          0.547005615999734 10.3793587378812 0.836169609735511 100.41238823779  0.836169609735511 100.41238823779  0.547005615999733 10.3793587378812 
! Gamma         0                0                0                0                
! Port Impedance         50               0                50               0                
14.7                           0.547516705900167 10.084006552943  0.835835832589133 100.116688020381 0.835835832589133 100.116688020381 0.547516705900167 10.084006552943  
! Gamma         0                0                0                0                
! Port Impedance         50               0                50               0                
14.72                          0.548012827558061 9.7888862512993  0.835511408590481 99.8212201435609 0.835511408590482 99.8212201435609 0.548012827558062 9.7888862512993  
! Gamma         0                0                0                0                
! Port Impedance         50               0                50               0                
14.74                          0.548494012940861 9.49399115172757 0.835196354199111 99.5259778993062 0.835196354199111 99.5259778993062 0.548494012940861 9.49399115172756 
! Gamma         0                0                0                0                
! Port Impedance         50               0                50               0                
14.76                          0.54896029311995 9.19931456896517 0.834890685298184 99.2309545757486 0.834890685298184 99.2309545757485 0.54896029311995 9.19931456896517 
! Gamma         0                0                0                0                
! Port Impedance         50               0                50               0                
14.78                          0.549411698266316 8.9048498139163  0.834594417202557 98.9361434573731 0.834594417202557 98.9361434573731 0.549411698266316 8.9048498139163  
! Gamma         0                0                0                0                
! Port Impedance         50               0                50               0                
14.8                           0.549848257646392 8.61059019385176 0.834307564666631 98.6415378252092 0.834307564666631 98.6415378252092 0.549848257646393 8.61059019385175 
! Gamma         0                0                0                0                
! Port Impedance         50               0                50               0                
14.82                          0.550269999618068 8.31652901260104 0.834030141891947 98.3471309570141 0.834030141891947 98.3471309570141 0.550269999618068 8.31652901260104 
! Gamma         0                0                0                0                
! Port Impedance         50               0                50               0                
14.84                          0.550676951626876 8.02265957073687 0.833762162534545 98.0529161274482 0.833762162534545 98.0529161274482 0.550676951626875 8.02265957073687 
! Gamma         0                0                0                0                
! Port Impedance         50               0                50               0                
14.86                          0.551069140202337 7.72897516575343 0.833503639712081 97.7588866082452 0.833503639712081 97.7588866082452 0.551069140202337 7.72897516575342 
! Gamma         0                0                0                0                
! Port Impedance         50               0                50               0                
14.88                          0.551446590954479 7.43546909223692 0.833254586010688 97.4650356683738 0.833254586010688 97.4650356683738 0.551446590954479 7.43546909223693 
! Gamma         0                0                0                0                
! Port Impedance         50               0                50               0                
14.9                           0.551809328570497 7.14213464203079 0.833015013491606 97.1713565741949 0.833015013491606 97.1713565741949 0.551809328570498 7.14213464203079 
! Gamma         0                0                0                0                
! Port Impedance         50               0                50               0                
14.92                          0.552157376811585 6.84896510439353 0.832784933697553 96.877842589611  0.832784933697553 96.877842589611  0.552157376811584 6.84896510439354 
! Gamma         0                0                0                0                
! Port Impedance         50               0                50               0                
14.94                          0.5524907585099  6.55595376615147 0.832564357658862 96.5844869762109 0.832564357658862 96.5844869762109 0.5524907585099  6.55595376615148 
! Gamma         0                0                0                0                
! Port Impedance         50               0                50               0                
14.96                          0.552809495565698 6.26309391184504 0.832353295899367 96.2912829934077 0.832353295899367 96.2912829934077 0.552809495565698 6.26309391184504 
! Gamma         0                0                0                0                
! Port Impedance         50               0                50               0                
14.98                          0.553113608944586 5.97037882387023 0.832151758442041 95.9982238985727 0.832151758442041 95.9982238985727 0.553113608944586 5.97037882387023 
! Gamma         0                0                0                0                
! Port Impedance         50               0                50               0                
15                             0.553403118674941 5.67780178261422 0.831959754814397 95.7053029471627 0.831959754814397 95.7053029471627 0.553403118674941 5.67780178261422 
! Gamma         0                0                0                0                
! Port Impedance         50               0                50               0                
15.02                          0.553678043845447 5.38535606658658 0.831777294053634 95.4125133928435 0.831777294053634 95.4125133928435 0.553678043845446 5.38535606658658 
! Gamma         0                0                0                0                
! Port Impedance         50               0                50               0                
15.04                          0.55393840260278 5.09303495254498 0.83160438471154 95.1198484876082 0.83160438471154 95.1198484876082 0.55393840260278 5.09303495254498 
! Gamma         0                0                0                0                
! Port Impedance         50               0                50               0                
15.06                          0.554184212149423 4.80083171561713 0.831441034859153 94.8273014818909 0.831441034859154 94.8273014818909 0.554184212149423 4.80083171561713 
! Gamma         0                0                0                0                
! Port Impedance         50               0                50               0                
15.08                          0.554415488741608 4.50873962941804 0.831287252091173 94.5348656246769 0.831287252091173 94.5348656246769 0.554415488741607 4.50873962941804 
! Gamma         0                0                0                0                
! Port Impedance         50               0                50               0                
15.1                           0.554632247687387 4.21675196616291 0.831143043530125 94.2425341636074 0.831143043530125 94.2425341636074 0.554632247687387 4.21675196616291 
! Gamma         0                0                0                0                
! Port Impedance         50               0                50               0                
15.12                          0.554834503344834 3.92486199677732 0.831008415830282 93.9503003450829 0.831008415830282 93.9503003450829 0.554834503344834 3.92486199677732 
! Gamma         0                0                0                0                
! Port Impedance         50               0                50               0                
15.14                          0.55502226912036 3.63306299100238 0.830883375181341 93.65815741436   0.830883375181342 93.65815741436   0.55502226912036 3.63306299100239 
! Gamma         0                0                0                0                
! Port Impedance         50               0                50               0                
15.16                          0.555195557467161 3.34134821749777 0.830767927311849 93.3660986156478 0.830767927311848 93.3660986156478 0.555195557467161 3.34134821749777 
! Gamma         0                0                0                0                
! Port Impedance         50               0                50               0                
15.18                          0.555354379883776 3.04971094394106 0.830662077492382 93.0741171921994 0.830662077492382 93.0741171921994 0.555354379883776 3.04971094394107 
! Gamma         0                0                0                0                
! Port Impedance         50               0                50               0                
15.2                           0.555498746912771 2.75814443712442 0.830565830538492 92.7822063864012 0.830565830538493 92.7822063864012 0.555498746912771 2.75814443712441 
! Gamma         0                0                0                0                
! Port Impedance         50               0                50               0                
15.22                          0.555628668139529 2.46664196304847 0.83047919081339 92.4903594398596 0.83047919081339 92.4903594398596 0.555628668139529 2.46664196304847 
! Gamma         0                0                0                0                
! Port Impedance         50               0                50               0                
15.24                          0.555744152191167 2.17519678701397 0.830402162230393 92.1985695934853 0.830402162230393 92.1985695934853 0.555744152191168 2.17519678701396 
! Gamma         0                0                0                0                
! Port Impedance         50               0                50               0                
15.26                          0.555845206735559 1.88380217371132 0.830334748255124 91.9068300875753 0.830334748255124 91.9068300875753 0.555845206735559 1.88380217371132 
! Gamma         0                0                0                0                
! Port Impedance         50               0                50               0                
15.28                          0.555931838480471 1.59245138730803 0.830276951907467 91.6151341618933 0.830276951907467 91.6151341618933 0.55593183848047 1.59245138730803 
! Gamma         0                0                0                0                
! Port Impedance         50               0                50               0                
15.3                           0.556004053172808 1.30113769153451 0.830228775763273 91.323475055748  0.830228775763274 91.323475055748  0.556004053172808 1.30113769153451 
! Gamma         0                0                0                0                
! Port Impedance         50               0                50               0                
15.32                          0.556061855597978 1.00985434976854 0.830190221955826 91.0318460080704 0.830190221955826 91.0318460080704 0.556061855597978 1.00985434976854 
! Gamma         0                0                0                0                
! Port Impedance         50               0                50               0                
15.34                          0.556105249579356 0.718594625118476 0.830161292177053 90.7402402574896 0.830161292177053 90.7402402574896 0.556105249579355 0.718594625118476 
! Gamma         0                0                0                0                
! Port Impedance         50               0                50               0                
15.36                          0.556134237977856 0.42735178050525 0.830141987678502 90.4486510424076 0.830141987678502 90.4486510424076 0.556134237977856 0.42735178050525 
! Gamma         0                0                0                0                
! Port Impedance         50               0                50               0                
15.38                          0.556148822691628 0.136119078743778 0.830132309272065 90.1570716010733 0.830132309272065 90.1570716010733 0.556148822691628 0.136119078743778 
! Gamma         0                0                0                0                
! Port Impedance         50               0                50               0                
15.4                           0.55614900465584 -0.155110217375987 0.830132257330459 89.865495171656  0.830132257330458 89.865495171656  0.556149004655841 -0.155110217375987 
! Gamma         0                0                0                0                
! Port Impedance         50               0                50               0                
15.42                          0.556134783842586 -0.44634284500862 0.830141831787457 89.573914992319  0.830141831787456 89.573914992319  0.556134783842586 -0.44634284500862 
! Gamma         0                0                0                0                
! Port Impedance         50               0                50               0                
15.44                          0.556106159260887 -0.737585541172983 0.83016103213788 89.2823243012918 0.83016103213788 89.2823243012918 0.556106159260887 -0.737585541172983 
! Gamma         0                0                0                0                
! Port Impedance         50               0                50               0                
15.46                          0.556063128956815 -1.02884504267099 0.830189857437341 88.9907163369446 0.830189857437341 88.9907163369446 0.556063128956815 -1.02884504267099 
! Gamma         0                0                0                0                
! Port Impedance         50               0                50               0                
15.48                          0.556005690013712 -1.32012808600711 0.830228306301741 88.6990843378606 0.830228306301741 88.6990843378606 0.556005690013712 -1.32012808600711 
! Gamma         0                0                0                0                
! Port Impedance         50               0                50               0                
15.5                           0.555933838552521 -1.61144140730649 0.83027637690652 88.4074215429108 0.83027637690652 88.4074215429108 0.555933838552522 -1.61144140730649 
! Gamma         0                0                0                0                
! Port Impedance         50               0                50               0                
15.52                          0.55584756973223 -1.90279174223243 0.830334066985666 88.1157211913291 0.830334066985666 88.1157211913291 0.55584756973223 -1.90279174223243 
! Gamma         0                0                0                0                
! Port Impedance         50               0                50               0                
15.54                          0.555746877750417 -2.19418582590268 0.830401373830477 87.8239765227881 0.830401373830478 87.8239765227881 0.555746877750416 -2.19418582590268 
! Gamma         0                0                0                0                
! Port Impedance         50               0                50               0                
15.56                          0.555631755843908 -2.48563039280493 0.830478294288071 87.5321807774758 0.830478294288072 87.5321807774758 0.555631755843908 -2.48563039280493 
! Gamma         0                0                0                0                
! Port Impedance         50               0                50               0                
15.58                          0.555502196289552 -2.7771321767098 0.830564824759663 87.2403271961756 0.830564824759663 87.2403271961756 0.555502196289551 -2.7771321767098 
! Gamma         0                0                0                0                
! Port Impedance         50               0                50               0                
15.6                           0.555358190405093 -3.06869791058311 0.830660961198581 86.9484090203453 0.830660961198581 86.9484090203453 0.555358190405093 -3.06869791058311 
! Gamma         0                0                0                0                
! Port Impedance         50               0                50               0                
15.62                          0.55519972855017 -3.36033432649521 0.830766699108055 86.6564194922007 0.830766699108055 86.6564194922007 0.555199728550169 -3.36033432649521 
! Gamma         0                0                0                0                
! Port Impedance         50               0                50               0                
15.64                          0.555026800127417 -3.65204815552863 0.830882033538738 86.3643518547996 0.830882033538738 86.3643518547996 0.555026800127418 -3.65204815552863 
! Gamma         0                0                0                0                
! Port Impedance         50               0                50               0                
15.66                          0.554839393583691 -3.94384612768334 0.831006959086006 86.0721993521286 0.831006959086005 86.0721993521286 0.55483939358369 -3.94384612768333 
! Gamma         0                0                0                0                
! Port Impedance         50               0                50               0                
15.68                          0.554637496411401 -4.23573497177854 0.831141469886985 85.7799552291933 0.831141469886985 85.7799552291933 0.554637496411401 -4.23573497177854 
! Gamma         0                0                0                0                
! Port Impedance         50               0                50               0                
15.7                           0.554421095149972 -4.52772141535255 0.831285559617359 85.4876127321102 0.831285559617359 85.4876127321102 0.554421095149973 -4.52772141535255 
! Gamma         0                0                0                0                
! Port Impedance         50               0                50               0                
15.72                          0.554190175387417 -4.81981218455859 0.831439221487916 85.1951651082024 0.831439221487916 85.1951651082024 0.554190175387417 -4.81981218455859 
! Gamma         0                0                0                0                
! Port Impedance         50               0                50               0                
15.74                          0.553944721762032 -5.1120140040576 0.831602448240851 84.9026056060986 0.83160244824085 84.9026056060986 0.553944721762031 -5.1120140040576 
! Gamma         0                0                0                0                
! Port Impedance         50               0                50               0                
15.76                          0.553684717964219 -5.4043335969076 0.831775232145822 84.6099274758354 0.831775232145822 84.6099274758354 0.553684717964218 -5.4043335969076 
! Gamma         0                0                0                0                
! Port Impedance         50               0                50               0                
15.78                          0.553410146738432 -5.69677768444835 0.831957564995771 84.3171239689637 0.831957564995771 84.3171239689637 0.553410146738431 -5.69677768444835 
! Gamma         0                0                0                0                
! Port Impedance         50               0                50               0                
15.8                           0.553120989885252 -5.989352986183  0.832149438102483 84.0241883386581 0.832149438102483 84.0241883386581 0.553120989885252 -5.989352986183  
! Gamma         0                0                0                0                
! Port Impedance         50               0                50               0                
15.82                          0.552817228263593 -6.28206621965414 0.832350842291911 83.731113839833  0.832350842291911 83.731113839833  0.552817228263593 -6.28206621965414 
! Gamma         0                0                0                0                
! Port Impedance         50               0                50               0                
15.84                          0.552498841793034 -6.57492410031635 0.832561767899252 83.4378937292596 0.832561767899252 83.4378937292596 0.552498841793034 -6.57492410031635 
! Gamma         0                0                0                0                
! Port Impedance         50               0                50               0                
15.86                          0.552165809456301 -6.86793334140306 0.832782204763777 83.1445212656912 0.832782204763777 83.1445212656912 0.552165809456301 -6.86793334140307 
! Gamma         0                0                0                0                
! Port Impedance         50               0                50               0                
15.88                          0.551818109301874 -7.16110065378878 0.833012142223411 82.8509897099909 0.833012142223411 82.8509897099909 0.551818109301874 -7.16110065378878 
! Gamma         0                0                0                0                
! Port Impedance         50               0                50               0                
15.9                           0.551455718446742 -7.45443274584578 0.833251569109081 82.5572923252658 0.833251569109081 82.5572923252658 0.551455718446742 -7.45443274584578 
! Gamma         0                0                0                0                
! Port Impedance         50               0                50               0                
15.92                          0.5510786130793  -7.74793632329503 0.8335004737388  82.2634223770064 0.8335004737388  82.2634223770064 0.551078613079301 -7.74793632329502 
! Gamma         0                0                0                0                
! Port Impedance         50               0                50               0                
15.94                          0.550686768462399 -8.04161808905199 0.833758843911521 81.9693731332308 0.833758843911521 81.9693731332308 0.550686768462398 -8.04161808905199 
! Gamma         0                0                0                0                
! Port Impedance         50               0                50               0                
15.96                          0.550280158936536 -8.33548474306508 0.83402666690074 81.675137864637  0.83402666690074 81.675137864637  0.550280158936536 -8.33548474306507 
! Gamma         0                0                0                0                
! Port Impedance         50               0                50               0                
15.98                          0.549858757923215 -8.62954298214908 0.834303929447854 81.3807098447584 0.834303929447853 81.3807098447584 0.549858757923214 -8.62954298214908 
! Gamma         0                0                0                0                
! Port Impedance         50               0                50               0                
16                             0.549422537928449 -8.92379949981128 0.83459061775527 81.086082350128  0.83459061775527 81.086082350128  0.549422537928449 -8.92379949981128 
! Gamma         0                0                0                0                
! Port Impedance         50               0                50               0                
16.02                          0.548971470546437 -9.21826098607042 0.834886717479285 80.7912486604491 0.834886717479285 80.7912486604491 0.548971470546437 -9.21826098607042 
! Gamma         0                0                0                0                
! Port Impedance         50               0                50               0                
16.04                          0.548505526463402 -9.51293412726985 0.835192213722697 80.4962020587707 0.835192213722697 80.4962020587707 0.548505526463402 -9.51293412726985 
! Gamma         0                0                0                0                
! Port Impedance         50               0                50               0                
16.06                          0.548024675461596 -9.80782560588145 0.835507091027199 80.2009358316733 0.835507091027199 80.2009358316733 0.548024675461597 -9.80782560588144 
! Gamma         0                0                0                0                
! Port Impedance         50               0                50               0                
16.08                          0.547528886423488 -10.1029421003038 0.835831333365507 79.9054432694594 0.835831333365507 79.9054432694594 0.547528886423488 -10.1029421003039 
! Gamma         0                0                0                0                
! Port Impedance         50               0                50               0                
16.1                           0.547018127336119 -10.3982902846513 0.836164924133259 79.609717666353  0.836164924133258 79.609717666353  0.547018127336119 -10.3982902846513 
! Gamma         0                0                0                0                
! Port Impedance         50               0                50               0                
16.12                          0.546492365295651 -10.6938768285353 0.836507846140664 79.3137523207066 0.836507846140664 79.3137523207066 0.54649236529565 -10.6938768285353 
! Gamma         0                0                0                0                
! Port Impedance         50               0                50               0                
16.14                          0.545951566512097 -10.9897083968375 0.836860081603915 79.0175405352165 0.836860081603915 79.0175405352165 0.545951566512097 -10.9897083968375 
! Gamma         0                0                0                0                
! Port Impedance         50               0                50               0                
16.16                          0.545395696314246 -11.2857916494738 0.837221612136353 78.7210756171465 0.837221612136353 78.7210756171465 0.545395696314246 -11.2857916494738 
! Gamma         0                0                0                0                
! Port Impedance         50               0                50               0                
16.18                          0.544824719154785 -11.5821332411498 0.837592418739394 78.4243508785597 0.837592418739394 78.4243508785597 0.544824719154785 -11.5821332411498 
! Gamma         0                0                0                0                
! Port Impedance         50               0                50               0                
16.2                           0.544238598615622 -11.878739821107 0.837972481793217 78.1273596365602 0.837972481793217 78.1273596365602 0.544238598615622 -11.878739821107 
! Gamma         0                0                0                0                
! Port Impedance         50               0                50               0                
16.22                          0.543637297413417 -12.1756180328595 0.838361781047208 77.8300952135431 0.838361781047209 77.8300952135431 0.543637297413417 -12.1756180328595 
! Gamma         0                0                0                0                
! Port Impedance         50               0                50               0                
16.24                          0.543020777405329 -12.4727745139212 0.83876029561017 77.5325509374546 0.83876029561017 77.5325509374546 0.543020777405329 -12.4727745139212 
! Gamma         0                0                0                0                
! Port Impedance         50               0                50               0                
16.26                          0.542388999594974 -12.7702158955223 0.839168003940287 77.2347201420609 0.839168003940287 77.2347201420609 0.542388999594974 -12.7702158955223 
! Gamma         0                0                0                0                
! Port Impedance         50               0                50               0                
16.28                          0.541741924138617 -13.0679488023165 0.839584883834863 76.9365961672278 0.839584883834863 76.9365961672278 0.541741924138617 -13.0679488023165 
! Gamma         0                0                0                0                
! Port Impedance         50               0                50               0                
16.3                           0.541079510351583 -13.365979852077 0.840010912419813 76.6381723592107 0.840010912419813 76.6381723592107 0.541079510351584 -13.365979852077 
! Gamma         0                0                0                0                
! Port Impedance         50               0                50               0                
16.32                          0.540401716714912 -13.664315655382 0.840446066138927 76.3394420709542 0.840446066138926 76.3394420709542 0.540401716714913 -13.6643156553819 
! Gamma         0                0                0                0                
! Port Impedance         50               0                50               0                
16.34                          0.539708500882248 -13.9629628152888 0.840890320742894 76.0403986624026 0.840890320742894 76.0403986624026 0.539708500882248 -13.9629628152888 
! Gamma         0                0                0                0                
! Port Impedance         50               0                50               0                
16.36                          0.53899981968698 -14.2619279269969 0.841343651278101 75.7410355008225 0.841343651278101 75.7410355008225 0.53899981968698 -14.2619279269969 
! Gamma         0                0                0                0                
! Port Impedance         50               0                50               0                
16.38                          0.538275629149638 -14.5612175774993 0.841806032075192 75.4413459611349 0.841806032075192 75.4413459611349 0.538275629149638 -14.5612175774993 
! Gamma         0                0                0                0                
! Port Impedance         50               0                50               0                
16.4                           0.537535884485544 -14.8608383452217 0.842277436737404 75.1413234262608 0.842277436737404 75.1413234262608 0.537535884485544 -14.8608383452217 
! Gamma         0                0                0                0                
! Port Impedance         50               0                50               0                
16.42                          0.536780540112732 -15.1607967996499 0.842757838128676 74.8409612874763 0.842757838128676 74.8409612874763 0.536780540112732 -15.1607967996499 
! Gamma         0                0                0                0                
! Port Impedance         50               0                50               0                
16.44                          0.536009549660147 -15.4610995009439 0.843247208361521 74.5402529447823 0.843247208361521 74.5402529447823 0.536009549660147 -15.4610995009439 
! Gamma         0                0                0                0                
! Port Impedance         50               0                50               0                
16.46                          0.535222865976109 -15.7617529995406 0.843745518784688 74.2391918072839 0.843745518784688 74.2391918072839 0.53522286597611 -15.7617529995406 
! Gamma         0                0                0                0                
! Port Impedance         50               0                50               0                
16.48                          0.534420441137084 -16.0627638357419 0.844252739970591 73.9377712935849 0.844252739970591 73.9377712935849 0.534420441137084 -16.0627638357419 
! Gamma         0                0                0                0                
! Port Impedance         50               0                50               0                
16.5                           0.53360222645673 -16.3641385392904 0.844768841702522 73.6359848321936 0.844768841702522 73.6359848321936 0.53360222645673 -16.3641385392904 
! Gamma         0                0                0                0                
! Port Impedance         50               0                50               0                
16.52                          0.532768172495255 -16.6658836289314 0.845293792961645 73.3338258619416 0.845293792961646 73.3338258619416 0.532768172495255 -16.6658836289314 
! Gamma         0                0                0                0                
! Port Impedance         50               0                50               0                
16.54                          0.531918229069086 -16.9680056119604 0.845827561913774 73.0312878324177 0.845827561913774 73.0312878324177 0.531918229069086 -16.9680056119604 
! Gamma         0                0                0                0                
! Port Impedance         50               0                50               0                
16.56                          0.531052345260838 -17.2705109837572 0.846370115895935 72.728364204413  0.846370115895935 72.728364204413  0.531052345260838 -17.2705109837572 
! Gamma         0                0                0                0                
! Port Impedance         50               0                50               0                
16.58                          0.530170469429629 -17.5734062273046 0.846921421402725 72.4250484503822 0.846921421402725 72.4250484503822 0.530170469429629 -17.5734062273046 
! Gamma         0                0                0                0                
! Port Impedance         50               0                50               0                
16.6                           0.529272549221702 -17.8766978126931 0.847481444072455 72.1213340549183 0.847481444072455 72.1213340549183 0.529272549221703 -17.8766978126931 
! Gamma         0                0                0                0                
! Port Impedance         50               0                50               0                
16.62                          0.528358531581407 -18.1803921966101 0.848050148673091 71.8172145152407 0.848050148673091 71.8172145152407 0.528358531581407 -18.1803921966101 
! Gamma         0                0                0                0                
! Port Impedance         50               0                50               0                
16.64                          0.527428362762512 -18.4844958218135 0.848627499087993 71.5126833417004 0.848627499087993 71.5126833417004 0.527428362762513 -18.4844958218135 
! Gamma         0                0                0                0                
! Port Impedance         50               0                50               0                
16.66                          0.526481988339881 -18.7890151165904 0.849213458301459 71.2077340582976 0.84921345830146 71.2077340582976 0.526481988339881 -18.7890151165904 
! Gamma         0                0                0                0                
! Port Impedance         50               0                50               0                
16.68                          0.525519353221508 -19.0939564941985 0.849807988384071 70.9023602032171 0.849807988384071 70.9023602032171 0.525519353221508 -19.0939564941985 
! Gamma         0                0                0                0                
! Port Impedance         50               0                50               0                
16.7                           0.524540401660921 -19.399326352293 0.850411050477846 70.5965553293771 0.850411050477846 70.5965553293771 0.524540401660921 -19.399326352293 
! Gamma         0                0                0                0                
! Port Impedance         50               0                50               0                
16.72                          0.52354507726997 -19.7051310723351 0.85102260478121 70.2903130049955 0.85102260478121 70.2903130049955 0.52354507726997 -19.7051310723351 
! Gamma         0                0                0                0                
! Port Impedance         50               0                50               0                
16.74                          0.522533323031999 -20.0113770189852 0.851642610533781 69.9836268141712 0.851642610533781 69.9836268141712 0.522533323031999 -20.0113770189852 
! Gamma         0                0                0                0                
! Port Impedance         50               0                50               0                
16.76                          0.52150508131541 -20.3180705394774 0.85227102600097 69.6764903574826 0.85227102600097 69.6764903574826 0.52150508131541 -20.3180705394774 
! Gamma         0                0                0                0                
! Port Impedance         50               0                50               0                
16.78                          0.52046029388764 -20.6252179629785 0.852907808458424 69.3688972526019 0.852907808458424 69.3688972526019 0.52046029388764 -20.6252179629785 
! Gamma         0                0                0                0                
! Port Impedance         50               0                50               0                
16.8                           0.51939890192954 -20.9328255999272 0.853552914176282 69.0608411349272 0.853552914176282 69.0608411349272 0.51939890192954 -20.9328255999272 
! Gamma         0                0                0                0                
! Port Impedance         50               0                50               0                
16.82                          0.518320846050187 -21.2408997413565 0.85420629840327 68.7523156582311 0.85420629840327 68.7523156582311 0.518320846050187 -21.2408997413565 
! Gamma         0                0                0                0                
! Port Impedance         50               0                50               0                
16.84                          0.517226066302116 -21.5494466581975 0.854867915350652 68.4433144953268 0.854867915350652 68.4433144953268 0.517226066302116 -21.5494466581975 
! Gamma         0                0                0                0                
! Port Impedance         50               0                50               0                
16.86                          0.516114502196994 -21.8584726005647 0.855537718176004 68.1338313387524 0.855537718176004 68.1338313387524 0.516114502196994 -21.8584726005647 
! Gamma         0                0                0                0                
! Port Impedance         50               0                50               0                
16.88                          0.514986092721748 -22.1679837970218 0.856215658966858 67.8238599014724 0.856215658966858 67.8238599014724 0.514986092721747 -22.1679837970219 
! Gamma         0                0                0                0                
! Port Impedance         50               0                50               0                
16.9                           0.513840776355138 -22.4779864538293 0.8569016887242  67.5133939175981 0.856901688724199 67.5133939175981 0.513840776355138 -22.4779864538293 
! Gamma         0                0                0                0                
! Port Impedance         50               0                50               0                
16.92                          0.512678491084809 -22.788486754171 0.857595757345824 67.2024271431258 0.857595757345824 67.2024271431257 0.512678491084809 -22.788486754171 
! Gamma         0                0                0                0                
! Port Impedance         50               0                50               0                
16.94                          0.511499174424803 -23.0994908573631 0.858297813609573 66.8909533566939 0.858297813609573 66.8909533566939 0.511499174424803 -23.0994908573632 
! Gamma         0                0                0                0                
! Port Impedance         50               0                50               0                
16.96                          0.51030276343357 -23.4110048980407 0.859007805156441 66.5789663603595 0.859007805156441 66.5789663603595 0.51030276343357 -23.4110048980407 
! Gamma         0                0                0                0                
! Port Impedance         50               0                50               0                
16.98                          0.509089194732457 -23.7230349853254 0.859725678473572 66.2664599803933 0.859725678473572 66.2664599803933 0.509089194732457 -23.7230349853254 
! Gamma         0                0                0                0                
! Port Impedance         50               0                50               0                
17                             0.50785840452471 -24.0355872019724 0.860451378877148 65.9534280680941 0.860451378877148 65.9534280680941 0.50785840452471 -24.0355872019724 
! Gamma         0                0                0                0                
! Port Impedance         50               0                50               0                
17.02                          0.506610328614982 -24.3486676034956 0.861184850495175 65.6398645006234 0.861184850495175 65.6398645006234 0.506610328614983 -24.3486676034956 
! Gamma         0                0                0                0                
! Port Impedance         50               0                50               0                
17.04                          0.505344902429361 -24.6622822172724 0.861926036250181 65.3257631818595 0.861926036250181 65.3257631818595 0.505344902429361 -24.6622822172723 
! Gamma         0                0                0                0                
! Port Impedance         50               0                50               0                
17.06                          0.504062061035925 -24.9764370416267 0.862674877841829 65.0111180432715 0.862674877841829 65.0111180432715 0.504062061035924 -24.9764370416267 
! Gamma         0                0                0                0                
! Port Impedance         50               0                50               0                
17.08                          0.502761739165836 -25.2911380448906 0.863431315729454 64.6959230448139 0.863431315729454 64.6959230448139 0.502761739165836 -25.2911380448906 
! Gamma         0                0                0                0                
! Port Impedance         50               0                50               0                
17.1                           0.50144387123499 -25.606391164443 0.864195289114543 64.3801721758416 0.864195289114543 64.3801721758416 0.50144387123499 -25.606391164443 
! Gamma         0                0                0                0                
! Port Impedance         50               0                50               0                
17.12                          0.500108391366205 -25.9222023057272 0.864966735923144 64.0638594560458 0.864966735923144 64.0638594560458 0.500108391366205 -25.9222023057272 
! Gamma         0                0                0                0                
! Port Impedance         50               0                50               0                
17.14                          0.498755233411987 -26.238577341245 0.865745592788246 63.74697893641   0.865745592788246 63.74697893641   0.498755233411987 -26.238577341245 
! Gamma         0                0                0                0                
! Port Impedance         50               0                50               0                
17.16                          0.497384330977867 -26.5555221095288 0.866531795032109 63.4295247001882 0.866531795032109 63.4295247001882 0.497384330977866 -26.5555221095288 
! Gamma         0                0                0                0                
! Port Impedance         50               0                50               0                
17.18                          0.495995617446314 -26.8730424140898 0.867325276648579 63.1114908639035 0.867325276648579 63.1114908639035 0.495995617446314 -26.8730424140898 
! Gamma         0                0                0                0                
! Port Impedance         50               0                50               0                
17.2                           0.494589026001252 -27.1911440223438 0.86812597028538 62.7928715783685 0.86812597028538 62.7928715783685 0.494589026001251 -27.1911440223438 
! Gamma         0                0                0                0                
! Port Impedance         50               0                50               0                
17.22                          0.493164489653158 -27.5098326645126 0.868933807226411 62.4736610297272 0.86893380722641 62.4736610297272 0.493164489653158 -27.5098326645126 
! Gamma         0                0                0                0                
! Port Impedance         50               0                50               0                
17.24                          0.491721941264787 -27.8291140325023 0.869748717374044 62.1538534405189 0.869748717374044 62.1538534405189 0.491721941264788 -27.8291140325023 
! Gamma         0                0                0                0                
! Port Impedance         50               0                50               0                
17.26                          0.490261313577501 -28.148993778757 0.870570629231449 61.8334430707634 0.870570629231449 61.8334430707634 0.490261313577501 -28.1489937787571 
! Gamma         0                0                0                0                
! Port Impedance         50               0                50               0                
17.28                          0.488782539238221 -28.4694775150892 0.871399469884947 61.5124242190689 0.871399469884948 61.5124242190689 0.488782539238221 -28.4694775150892 
! Gamma         0                0                0                0                
! Port Impedance         50               0                50               0                
17.3                           0.487285550827021 -28.7905708114841 0.872235164986412 61.1907912237615 0.872235164986412 61.1907912237615 0.487285550827021 -28.7905708114841 
! Gamma         0                0                0                0                
! Port Impedance         50               0                50               0                
17.32                          0.485770280885359 -29.1122791948814 0.87307763873573 60.8685384640376 0.87307763873573 60.8685384640376 0.485770280885359 -29.1122791948814 
! Gamma         0                0                0                0                
! Port Impedance         50               0                50               0                
17.34                          0.484236661944945 -29.4346081479299 0.873926813863332 60.5456603611381 0.873926813863332 60.5456603611381 0.484236661944945 -29.4346081479299 
! Gamma         0                0                0                0                
! Port Impedance         50               0                50               0                
17.36                          0.482684626557283 -29.7575631077188 0.874782611612819 60.2221513795454 0.87478261161282 60.2221513795454 0.482684626557282 -29.7575631077188 
! Gamma         0                0                0                0                
! Port Impedance         50               0                50               0                
17.38                          0.481114107323855 -30.0811494644831 0.875644951723678 59.8980060282026 0.875644951723678 59.8980060282026 0.481114107323855 -30.0811494644831 
! Gamma         0                0                0                0                
! Port Impedance         50               0                50               0                
17.4                           0.479525036926995 -30.4053725602829 0.876513752414124 59.573218861756  0.876513752414124 59.573218861756  0.479525036926995 -30.4053725602829 
! Gamma         0                0                0                0                
! Port Impedance         50               0                50               0                
17.42                          0.477917348161421 -30.7302376876578 0.877388930364069 59.2477844818195 0.877388930364069 59.2477844818195 0.477917348161421 -30.7302376876578 
! Gamma         0                0                0                0                
! Port Impedance         50               0                50               0                
17.44                          0.476290973966461 -31.0557500882554 0.878270400698245 58.9216975382623 0.878270400698246 58.9216975382623 0.476290973966461 -31.0557500882555 
! Gamma         0                0                0                0                
! Port Impedance         50               0                50               0                
17.46                          0.474645847458962 -31.3819149514335 0.879158076969485 58.594952730519  0.879158076969485 58.594952730519  0.474645847458962 -31.3819149514335 
! Gamma         0                0                0                0                
! Port Impedance         50               0                50               0                
17.48                          0.472981901966896 -31.708737412836 0.880051871142186 58.2675448089225 0.880051871142186 58.2675448089226 0.472981901966896 -31.708737412836 
! Gamma         0                0                0                0                
! Port Impedance         50               0                50               0                
17.5                           0.471299071063666 -32.0362225529427 0.880951693575977 57.9394685760601 0.880951693575977 57.9394685760601 0.471299071063666 -32.0362225529427 
! Gamma         0                0                0                0                
! Port Impedance         50               0                50               0                
17.52                          0.469597288603115 -32.364375395593 0.881857453009596 57.6107188881513 0.881857453009596 57.6107188881513 0.469597288603115 -32.364375395593 
! Gamma         0                0                0                0                
! Port Impedance         50               0                50               0                
17.54                          0.467876488755246 -32.6932009064821 0.882769056545004 57.2812906564495 0.882769056545004 57.2812906564495 0.467876488755246 -32.6932009064821 
! Gamma         0                0                0                0                
! Port Impedance         50               0                50               0                
17.56                          0.466136606042658 -33.0227039916309 0.883686409631757 56.9511788486657 0.883686409631757 56.9511788486657 0.466136606042659 -33.0227039916309 
! Gamma         0                0                0                0                
! Port Impedance         50               0                50               0                
17.58                          0.464377575377697 -33.3528894958295 0.884609416051639 56.6203784904145 0.884609416051639 56.6203784904145 0.464377575377697 -33.3528894958295 
! Gamma         0                0                0                0                
! Port Impedance         50               0                50               0                
17.6                           0.462599332100329 -33.6837622010527 0.885537977903601 56.2888846666831 0.885537977903601 56.2888846666831 0.462599332100329 -33.6837622010527 
! Gamma         0                0                0                0                
! Port Impedance         50               0                50               0                
17.62                          0.460801812016739 -34.0153268248494 0.886471995588998 55.9566925233226 0.886471995588998 55.9566925233226 0.460801812016739 -34.0153268248494 
! Gamma         0                0                0                0                
! Port Impedance         50               0                50               0                
17.64                          0.458984951438658 -34.3475880187039 0.88741136779717 55.6237972685609 0.88741136779717 55.6237972685609 0.458984951438658 -34.3475880187039 
! Gamma         0                0                0                0                
! Port Impedance         50               0                50               0                
17.66                          0.457148687223417 -34.6805503663709 0.888355991491371 55.2901941745391 0.88835599149137 55.2901941745391 0.457148687223417 -34.6805503663709 
! Gamma         0                0                0                0                
! Port Impedance         50               0                50               0                
17.68                          0.45529295681473 -35.014218382182 0.889305761895068 54.9558785788676 0.889305761895069 54.9558785788677 0.45529295681473 -35.0142183821821 
! Gamma         0                0                0                0                
! Port Impedance         50               0                50               0                
17.7                           0.453417698284215 -35.3485965093261 0.890260572478652 54.620845886206  0.890260572478652 54.620845886206  0.453417698284215 -35.3485965093261 
! Gamma         0                0                0                0                
! Port Impedance         50               0                50               0                
17.72                          0.451522850373639 -35.6836891181008 0.891220314946546 54.2850915698632 0.891220314946546 54.2850915698632 0.451522850373638 -35.6836891181008 
! Gamma         0                0                0                0                
! Port Impedance         50               0                50               0                
17.74                          0.449608352537898 -36.0195005041375 0.892184879224776 53.9486111734194 0.892184879224776 53.9486111734194 0.449608352537899 -36.0195005041375 
! Gamma         0                0                0                0                
! Port Impedance         50               0                50               0                
17.76                          0.447674144988733 -36.3560348865981 0.893154153448994 53.6114003123685 0.893154153448995 53.6114003123685 0.447674144988733 -36.3560348865981 
! Gamma         0                0                0                0                
! Port Impedance         50               0                50               0                
17.78                          0.445720168739164 -36.6932964063448 0.894128023952994 53.2734546757817 0.894128023952995 53.2734546757818 0.445720168739164 -36.6932964063448 
! Gamma         0                0                0                0                
! Port Impedance         50               0                50               0                
17.8                           0.443746365648658 -37.0312891240808 0.895106375257737 52.9347700279913 0.895106375257736 52.9347700279913 0.443746365648658 -37.0312891240808 
! Gamma         0                0                0                0                
! Port Impedance         50               0                50               0                
17.82                          0.441752678469023 -37.3700170184649 0.896089090060918 52.5953422102938 0.896089090060918 52.5953422102938 0.441752678469023 -37.3700170184649 
! Gamma         0                0                0                0                
! Port Impedance         50               0                50               0                
17.84                          0.439739050891013 -37.7094839841973 0.897076049227096 52.2551671426743 0.897076049227096 52.2551671426743 0.439739050891013 -37.7094839841973 
! Gamma         0                0                0                0                
! Port Impedance         50               0                50               0                
17.86                          0.437705427591659 -38.0496938300778 0.898067131778401 51.9142408255481 0.898067131778401 51.9142408255481 0.437705427591659 -38.0496938300778 
! Gamma         0                0                0                0                
! Port Impedance         50               0                50               0                
17.88                          0.4356517542823  -38.3906502770364 0.899062214885865 51.5725593415226 0.899062214885865 51.5725593415226 0.4356517542823  -38.3906502770363 
! Gamma         0                0                0                0                
! Port Impedance         50               0                50               0                
17.9                           0.433577977757328 -38.7323569561356 0.900061173861387 51.230118857177  0.900061173861387 51.230118857177  0.433577977757328 -38.7323569561356 
! Gamma         0                0                0                0                
! Port Impedance         50               0                50               0                
17.92                          0.431484045943624 -39.0748174065454 0.901063882150364 50.88691562486   0.901063882150363 50.8869156248599 0.431484045943624 -39.0748174065454 
! Gamma         0                0                0                0                
! Port Impedance         50               0                50               0                
17.94                          0.42936990795068 -39.4180350734898 0.902070211325009 50.542945984504  0.902070211325009 50.5429459845041 0.42936990795068 -39.4180350734898 
! Gamma         0                0                0                0                
! Port Impedance         50               0                50               0                
17.96                          0.427235514121412 -39.7620133061655 0.903080031078399 50.1982063654583 0.903080031078399 50.1982063654583 0.427235514121412 -39.7620133061655 
! Gamma         0                0                0                0                
! Port Impedance         50               0                50               0                
17.98                          0.425080816083633 -40.1067553556331 0.904093209219257 49.8526932883356 0.904093209219257 49.8526932883356 0.425080816083633 -40.1067553556331 
! Gamma         0                0                0                0                
! Port Impedance         50               0                50               0                
18                             0.422905766802191 -40.4522643726799 0.905109611667512 49.5064033668765 0.905109611667512 49.5064033668765 0.422905766802191 -40.4522643726799 
! Gamma         0                0                0                0                
! Port Impedance         50               0                50               0                
18.02                          0.420710320631757 -40.7985434056541 0.906129102450668 49.1593333098275 0.906129102450667 49.1593333098275 0.420710320631757 -40.798543405654 
! Gamma         0                0                0                0                
! Port Impedance         50               0                50               0                
18.04                          0.418494433370242 -41.1455953982721 0.907151543700986 48.8114799228341 0.907151543700986 48.8114799228341 0.418494433370242 -41.1455953982721 
! Gamma         0                0                0                0                
! Port Impedance         50               0                50               0                
18.06                          0.416258062312844 -41.4934231873964 0.908176795653543 48.4628401103473 0.908176795653543 48.4628401103473 0.416258062312844 -41.4934231873963 
! Gamma         0                0                0                0                
! Port Impedance         50               0                50               0                
18.08                          0.414001166306692 -41.8420295007861 0.909204716645161 48.1134108775423 0.909204716645161 48.1134108775423 0.414001166306692 -41.8420295007861 
! Gamma         0                0                0                0                
! Port Impedance         50               0                50               0                
18.1                           0.411723705806094 -42.1914169548184 0.91023516311426 47.7631893322502 0.91023516311426 47.7631893322502 0.411723705806094 -42.1914169548183 
! Gamma         0                0                0                0                
! Port Impedance         50               0                50               0                
18.12                          0.40942564292835 -42.5415880521812 0.911267989601652 47.4121726869006 0.911267989601652 47.4121726869006 0.409425642928349 -42.5415880521813 
! Gamma         0                0                0                0                
! Port Impedance         50               0                50               0                
18.14                          0.407106941510114 -42.8925451795391 0.912303048752309 47.0603582604735 0.912303048752309 47.0603582604735 0.407106941510114 -42.8925451795391 
! Gamma         0                0                0                0                
! Port Impedance         50               0                50               0                
18.16                          0.404767567164317 -43.2442906051667 0.913340191318128 46.7077434804632 0.913340191318128 46.7077434804632 0.404767567164317 -43.2442906051667 
! Gamma         0                0                0                0                
! Port Impedance         50               0                50               0                
18.18                          0.402407487337577 -43.5968264765569 0.914379266161733 46.3543258848475 0.914379266161733 46.3543258848475 0.402407487337577 -43.5968264765569 
! Gamma         0                0                0                0                
! Port Impedance         50               0                50               0                
18.2                           0.400026671368121 -43.9501548179963 0.915420120261329 46.0001031240675 0.915420120261328 46.0001031240675 0.400026671368121 -43.9501548179963 
! Gamma         0                0                0                0                
! Port Impedance         50               0                50               0                
18.22                          0.397625090544177 -44.3042775281137 0.916462598716652 45.6450729630118 0.916462598716651 45.6450729630118 0.397625090544177 -44.3042775281138 
! Gamma         0                0                0                0                
! Port Impedance         50               0                50               0                
18.24                          0.395202718162803 -44.659196377396 0.917506544756027 45.2892332830076 0.917506544756027 45.2892332830076 0.395202718162803 -44.659196377396 
! Gamma         0                0                0                0                
! Port Impedance         50               0                50               0                
18.26                          0.392759529589148 -45.0149130056749 0.918551799744582 44.9325820838158 0.918551799744582 44.9325820838158 0.392759529589148 -45.0149130056749 
! Gamma         0                0                0                0                
! Port Impedance         50               0                50               0                
18.28                          0.390295502316105 -45.3714289195826 0.919598203193628 44.5751174856293 0.919598203193629 44.5751174856292 0.390295502316105 -45.3714289195827 
! Gamma         0                0                0                0                
! Port Impedance         50               0                50               0                
18.3                           0.387810616024326 -45.7287454899749 0.920645592771246 44.2168377310736 0.920645592771246 44.2168377310736 0.387810616024326 -45.7287454899749 
! Gamma         0                0                0                0                
! Port Impedance         50               0                50               0                
18.32                          0.385304852642576 -46.0868639493224 0.921693804314103 43.8577411872088 0.921693804314103 43.8577411872088 0.385304852642575 -46.0868639493224 
! Gamma         0                0                0                0                
! Port Impedance         50               0                50               0                
18.34                          0.382778196408397 -46.4457853890689 0.922742671840531 43.4978263475308 0.922742671840531 43.4978263475308 0.382778196408397 -46.445785389069 
! Gamma         0                0                0                0                
! Port Impedance         50               0                50               0                
18.36                          0.380230633929045 -46.8055107569548 0.923792027564886 43.1370918339717 0.923792027564886 43.1370918339717 0.380230633929045 -46.8055107569548 
! Gamma         0                0                0                0                
! Port Impedance         50               0                50               0                
18.38                          0.37766215424266 -47.1660408543064 0.924841701913227 42.7755363988966 0.924841701913227 42.7755363988966 0.37766215424266 -47.1660408543064 
! Gamma         0                0                0                0                
! Port Impedance         50               0                50               0                
18.4                           0.375072748879652 -47.5273763332879 0.925891523540329 42.4131589270971 0.925891523540329 42.4131589270971 0.375072748879652 -47.5273763332879 
! Gamma         0                0                0                0                
! Port Impedance         50               0                50               0                
18.42                          0.37246241192425 -47.8895176941172 0.926941319348072 42.0499584377785 0.926941319348072 42.0499584377785 0.37246241192425 -47.8895176941172 
! Gamma         0                0                0                0                
! Port Impedance         50               0                50               0                
18.44                          0.369831140076185 -48.2524652822409 0.927990914505211 41.6859340865412 0.927990914505211 41.6859340865412 0.369831140076185 -48.252465282241 
! Gamma         0                0                0                0                
! Port Impedance         50               0                50               0                
18.46                          0.367178932712462 -48.6162192854708 0.929040132468574 41.321085167352  0.929040132468574 41.321085167352  0.367178932712462 -48.6162192854707 
! Gamma         0                0                0                0                
! Port Impedance         50               0                50               0                
18.48                          0.364505791949193 -48.9807797310754 0.930088795005693 40.9554111145071 0.930088795005693 40.9554111145071 0.364505791949193 -48.9807797310754 
! Gamma         0                0                0                0                
! Port Impedance         50               0                50               0                
18.5                           0.36181172270343 -49.3461464828287 0.931136722218912 40.5889115045835 0.931136722218912 40.5889115045835 0.36181172270343 -49.3461464828287 
! Gamma         0                0                0                0                
! Port Impedance         50               0                50               0                
18.52                          0.359096732754969 -49.7123192380111 0.932183732570973 40.2215860583758 0.932183732570973 40.2215860583758 0.359096732754969 -49.7123192380111 
! Gamma         0                0                0                0                
! Port Impedance         50               0                50               0                
18.54                          0.356360832808082 -50.0792975243605 0.933229642912122 39.8534346428208 0.933229642912122 39.8534346428208 0.356360832808081 -50.0792975243605 
! Gamma         0                0                0                0                
! Port Impedance         50               0                50               0                
18.56                          0.353604036553114 -50.4470806969712 0.934274268508739 39.4844572729041 0.934274268508739 39.4844572729041 0.353604036553114 -50.4470806969713 
! Gamma         0                0                0                0                
! Port Impedance         50               0                50               0                
18.58                          0.350826360727923 -50.8156679351368 0.935317423073536 39.1146541135495 0.935317423073536 39.1146541135495 0.350826360727924 -50.8156679351368 
! Gamma         0                0                0                0                
! Port Impedance         50               0                50               0                
18.6                           0.34802782517909 -51.1850582391332 0.93635891879731 38.7440254814889 0.93635891879731 38.7440254814889 0.34802782517909 -51.1850582391333 
! Gamma         0                0                0                0                
! Port Impedance         50               0                50               0                
18.62                          0.345208452922859 -51.5552504269388 0.937398566382302 38.3725718471099 0.937398566382302 38.3725718471099 0.345208452922859 -51.5552504269388 
! Gamma         0                0                0                0                
! Port Impedance         50               0                50               0                
18.64                          0.342368270205769 -51.9262431308848 0.938436175077157 38.0002938362821 0.938436175077157 38.0002938362821 0.342368270205769 -51.9262431308848 
! Gamma         0                0                0                0                
! Port Impedance         50               0                50               0                
18.66                          0.339507306564896 -52.2980347942344 0.939471552713511 37.6271922321564 0.939471552713511 37.6271922321564 0.339507306564896 -52.2980347942344 
! Gamma         0                0                0                0                
! Port Impedance         50               0                50               0                
18.68                          0.336625594887684 -52.670623667681 0.940504505744219 37.2532679769394 0.94050450574422 37.2532679769394 0.336625594887684 -52.670623667681 
! Gamma         0                0                0                0                
! Port Impedance         50               0                50               0                
18.7                           0.333723171471276 -53.0440078057629 0.941534839283236 36.8785221736374 0.941534839283236 36.8785221736374 0.333723171471276 -53.0440078057629 
! Gamma         0                0                0                0                
! Port Impedance         50               0                50               0                
18.72                          0.330800076081326 -53.4181850631845 0.942562357147163 36.5029560877717 0.942562357147162 36.5029560877717 0.330800076081326 -53.4181850631844 
! Gamma         0                0                0                0                
! Port Impedance         50               0                50               0                
18.74                          0.327856352010197 -53.7931530910381 0.943586861898465 36.1265711490601 0.943586861898465 36.1265711490601 0.327856352010197 -53.7931530910381 
! Gamma         0                0                0                0                
! Port Impedance         50               0                50               0                
18.76                          0.324892046134516 -54.1689093329183 0.944608154890391 35.7493689530648 0.944608154890391 35.7493689530648 0.324892046134516 -54.1689093329183 
! Gamma         0                0                0                0                
! Port Impedance         50               0                50               0                
18.78                          0.321907208972013 -54.5454510209159 0.945626036313569 35.3713512628036 0.945626036313569 35.3713512628036 0.321907208972013 -54.5454510209159 
! Gamma         0                0                0                0                
! Port Impedance         50               0                50               0                
18.8                           0.318901894737582 -54.922775171486 0.946640305244309 34.9925200103229 0.946640305244308 34.9925200103229 0.318901894737581 -54.922775171486 
! Gamma         0                0                0                0                
! Port Impedance         50               0                50               0                
18.82                          0.315876161398506 -55.3008785811736 0.947650759694609 34.6128772982312 0.94765075969461 34.6128772982312 0.315876161398506 -55.3008785811737 
! Gamma         0                0                0                0                
! Port Impedance         50               0                50               0                
18.84                          0.312830070728788 -55.6797578221875 0.948657196663879 34.2324254011889 0.948657196663879 34.2324254011889 0.312830070728788 -55.6797578221875 
! Gamma         0                0                0                0                
! Port Impedance         50               0                50               0                
18.86                          0.309763688362512 -56.059409237805 0.949659412192351 33.8511667673546 0.949659412192351 33.8511667673546 0.309763688362512 -56.059409237805 
! Gamma         0                0                0                0                
! Port Impedance         50               0                50               0                
18.88                          0.306677083846184 -56.4398289375938 0.950657201416212 33.4691040197855 0.950657201416212 33.4691040197855 0.306677083846184 -56.4398289375938 
! Gamma         0                0                0                0                
! Port Impedance         50               0                50               0                
18.9                           0.303570330689977 -56.8210127924318 0.951650358624443 33.086239957788  0.951650358624443 33.086239957788  0.303570330689977 -56.8210127924319 
! Gamma         0                0                0                0                
! Port Impedance         50               0                50               0                
18.92                          0.30044350641782 -57.2029564293054 0.952638677317344 32.7025775582195 0.952638677317344 32.7025775582195 0.30044350641782 -57.2029564293054 
! Gamma         0                0                0                0                
! Port Impedance         50               0                50               0                
18.94                          0.297296692616266 -57.5856552258639 0.953621950266763 32.3181199767363 0.953621950266763 32.3181199767363 0.297296692616267 -57.5856552258639 
! Gamma         0                0                0                0                
! Port Impedance         50               0                50               0                
18.96                          0.294129974982068 -57.9691043047071 0.954599969578004 31.9328705489878 0.954599969578004 31.9328705489878 0.294129974982068 -57.9691043047072 
! Gamma         0                0                0                0                
! Port Impedance         50               0                50               0                
18.98                          0.290943443368391 -58.3532985273761 0.955572526753404 31.5468327917534 0.955572526753404 31.5468327917534 0.290943443368391 -58.3532985273761 
! Gamma         0                0                0                0                
! Port Impedance         50               0                50               0                
19                             0.287737191829613 -58.7382324880196 0.956539412757577 31.1600104040209 0.956539412757577 31.1600104040209 0.287737191829613 -58.7382324880197 
! Gamma         0                0                0                0                
! Port Impedance         50               0                50               0                
19.02                          0.284511318664621 -59.1239005067009 0.957500418084292 30.7724072680044 0.957500418084292 30.7724072680044 0.284511318664621 -59.1239005067009 
! Gamma         0                0                0                0                
! Port Impedance         50               0                50               0                
19.04                          0.28126592645855 -59.5102966223068 0.958455332824979 30.3840274500987 0.958455332824979 30.3840274500987 0.28126592645855 -59.5102966223068 
! Gamma         0                0                0                0                
! Port Impedance         50               0                50               0                
19.06                          0.278001122122897 -59.8974145850187 0.959403946738845 29.9948752017696 0.959403946738845 29.9948752017697 0.278001122122898 -59.8974145850188 
! Gamma         0                0                0                0                
! Port Impedance         50               0                50               0                
19.08                          0.274717016933932 -60.2852478482978 0.960346049324563 29.6049549603763 0.960346049324563 29.6049549603763 0.274717016933931 -60.2852478482978 
! Gamma         0                0                0                0                
! Port Impedance         50               0                50               0                
19.1                           0.271413726569345 -60.6737895603303 0.961281429893523 29.2142713499256 0.961281429893523 29.2142713499256 0.271413726569345 -60.6737895603303 
! Gamma         0                0                0                0                
! Port Impedance         50               0                50               0                
19.12                          0.268091371143067 -61.0630325548777 0.962209877644619 28.8228291817548 0.962209877644619 28.8228291817548 0.268091371143067 -61.0630325548777 
! Gamma         0                0                0                0                
! Port Impedance         50               0                50               0                
19.14                          0.264750075238185 -61.452969341462 0.963131181740517 28.4306334551419 0.963131181740517 28.4306334551419 0.264750075238185 -61.452969341462 
! Gamma         0                0                0                0                
! Port Impedance         50               0                50               0                
19.16                          0.261389967937891 -61.8435920948168 0.964045131385408 28.0376893578406 0.964045131385409 28.0376893578406 0.261389967937891 -61.8435920948169 
! Gamma         0                0                0                0                
! Port Impedance         50               0                50               0                
19.18                          0.258011182854395 -62.2348926435174 0.964951515904189 27.6440022665384 0.964951515904189 27.6440022665384 0.258011182854395 -62.2348926435173 
! Gamma         0                0                0                0                
! Port Impedance         50               0                50               0                
19.2                           0.254613858155754 -62.6268624576973 0.965850124823024 27.2495777472369 0.965850124823024 27.2495777472369 0.254613858155755 -62.6268624576973 
! Gamma         0                0                0                0                
! Port Impedance         50               0                50               0                
19.22                          0.251198136590516 -63.0194926357516 0.966740747951283 26.8544215555502 0.966740747951283 26.8544215555502 0.251198136590516 -63.0194926357517 
! Gamma         0                0                0                0                
! Port Impedance         50               0                50               0                
19.24                          0.247764165510157 -63.4127738898999 0.967623175464767 26.4585396369221 0.967623175464767 26.4585396369221 0.247764165510157 -63.4127738899   
! Gamma         0                0                0                0                
! Port Impedance         50               0                50               0                
19.26                          0.24431209688921 -63.8066965304844 0.968497197990222 26.0619381267581 0.968497197990223 26.0619381267581 0.24431209688921 -63.8066965304845 
! Gamma         0                0                0                0                
! Port Impedance         50               0                50               0                
19.28                          0.240842087343061 -64.201250448846 0.969362606691052 25.6646233504729 0.969362606691052 25.6646233504729 0.240842087343061 -64.201250448846 
! Gamma         0                0                0                0                
! Port Impedance         50               0                50               0                
19.3                           0.237354298143322 -64.5964250986104 0.970219193354212 25.2666018234488 0.970219193354212 25.2666018234488 0.237354298143321 -64.5964250986104 
! Gamma         0                0                0                0                
! Port Impedance         50               0                50               0                
19.32                          0.233848895230733 -64.9922094751898 0.971066750478206 24.8678802509059 0.971066750478206 24.8678802509059 0.233848895230733 -64.9922094751898 
! Gamma         0                0                0                0                
! Port Impedance         50               0                50               0                
19.34                          0.230326049225547 -65.3885920932785 0.971905071362154 24.4684655276814 0.971905071362154 24.4684655276814 0.230326049225547 -65.3885920932785 
! Gamma         0                0                0                0                
! Port Impedance         50               0                50               0                
19.36                          0.226785935435325 -65.7855609620936 0.97273395019585 24.0683647379165 0.97273395019585 24.0683647379165 0.226785935435325 -65.7855609620935 
! Gamma         0                0                0                0                
! Port Impedance         50               0                50               0                
19.38                          0.223228733860099 -66.18310355807  0.973553182150769 23.6675851546494 0.973553182150769 23.6675851546494 0.223228733860099 -66.1831035580701 
! Gamma         0                0                0                0                
! Port Impedance         50               0                50               0                
19.4                           0.219654629194846 -66.5812067946874 0.974362563471941 23.2661342393137 0.974362563471941 23.2661342393137 0.219654629194846 -66.5812067946874 
! Gamma         0                0                0                0                
! Port Impedance         50               0                50               0                
19.42                          0.216063810829231 -66.9798569890474 0.975161891570647 22.8640196411398 0.975161891570647 22.8640196411398 0.216063810829231 -66.9798569890473 
! Gamma         0                0                0                0                
! Port Impedance         50               0                50               0                
19.44                          0.212456472844574 -67.379039824773 0.975950965117847 22.4612491964596 0.975950965117847 22.4612491964597 0.212456472844574 -67.379039824773 
! Gamma         0                0                0                0                
! Port Impedance         50               0                50               0                
19.46                          0.208832814007975 -67.7787403107341 0.976729584138299 22.0578309279106 0.976729584138299 22.0578309279106 0.208832814007975 -67.7787403107341 
! Gamma         0                0                0                0                
! Port Impedance         50               0                50               0                
19.48                          0.2051930377636  -68.1789427350187 0.977497550105255 21.6537730435428 0.977497550105256 21.6537730435428 0.2051930377636  -68.1789427350187 
! Gamma         0                0                0                0                
! Port Impedance         50               0                50               0                
19.5                           0.201537352221039 -68.5796306134958 0.97825466603571 21.2490839358216 0.97825466603571 21.2490839358216 0.201537352221039 -68.5796306134957 
! Gamma         0                0                0                0                
! Port Impedance         50               0                50               0                
19.52                          0.197865970140744 -68.9807866321905 0.979000736586075 20.8437721805315 0.979000736586075 20.8437721805315 0.197865970140744 -68.9807866321905 
! Gamma         0                0                0                0                
! Port Impedance         50               0                50               0                
19.54                          0.194179108916496 -69.3823925825807 0.979735568148238 20.4378465355759 0.979735568148239 20.4378465355759 0.194179108916496 -69.3823925825808 
! Gamma         0                0                0                0                
! Port Impedance         50               0                50               0                
19.56                          0.190476990554875 -69.7844292887682 0.980458968945914 20.0313159396736 0.980458968945914 20.0313159396736 0.190476990554875 -69.7844292887681 
! Gamma         0                0                0                0                
! Port Impedance         50               0                50               0                
19.58                          0.186759841651717 -70.1868765252981 0.981170749131186 19.6241895109516 0.981170749131186 19.6241895109516 0.186759841651717 -70.186876525298 
! Gamma         0                0                0                0                
! Port Impedance         50               0                50               0                
19.6                           0.18302789336553 -70.5897129241963 0.98187072088119 19.2164765454332 0.981870720881189 19.2164765454332 0.18302789336553 -70.5897129241963 
! Gamma         0                0                0                0                
! Port Impedance         50               0                50               0                
19.62                          0.179281381387874 -70.9929158695255 0.98255869849482 18.8081865154214 0.98255869849482 18.8081865154214 0.179281381387874 -70.9929158695254 
! Gamma         0                0                0                0                
! Port Impedance         50               0                50               0                
19.64                          0.175520545910667 -71.3964613774675 0.98323449848939 18.3993290677762 0.98323449848939 18.3993290677762 0.175520545910667 -71.3964613774675 
! Gamma         0                0                0                0                
! Port Impedance         50               0                50               0                
19.66                          0.171745631590454 -71.800323959556 0.983897939697149 17.9899140220878 0.983897939697149 17.9899140220878 0.171745631590454 -71.8003239595559 
! Gamma         0                0                0                0                
! Port Impedance         50               0                50               0                
19.68                          0.167956887509595 -72.2044764662422 0.984548843361568 17.5799513687425 0.984548843361568 17.5799513687425 0.167956887509596 -72.2044764662422 
! Gamma         0                0                0                0                
! Port Impedance         50               0                50               0                
19.7                           0.164154567134438 -72.608889907418 0.985187033233301 17.169451266884  0.9851870332333  17.169451266884  0.164154567134438 -72.6088899074178 
! Gamma         0                0                0                0                
! Port Impedance         50               0                50               0                
19.72                          0.160338928270448 -73.0135332458524 0.98581233566573 16.7584240422691 0.98581233566573 16.7584240422691 0.160338928270448 -73.0135332458522 
! Gamma         0                0                0                0                
! Port Impedance         50               0                50               0                
19.74                          0.156510233014344 -73.4183731586681 0.986424579709998 16.3468801850176 0.986424579709998 16.3468801850176 0.156510233014344 -73.4183731586682 
! Gamma         0                0                0                0                
! Port Impedance         50               0                50               0                
19.76                          0.152668747703292 -73.8233737609562 0.987023597209436 15.9348303472575 0.987023597209436 15.9348303472575 0.152668747703292 -73.8233737609562 
! Gamma         0                0                0                0                
! Port Impedance         50               0                50               0                
19.78                          0.148814742861169 -74.2284962843591 0.987609222893286 15.5222853406653 0.987609222893286 15.5222853406653 0.148814742861169 -74.2284962843591 
! Gamma         0                0                0                0                
! Port Impedance         50               0                50               0                
19.8                           0.144948493142009 -74.6336987018537 0.988181294469629 15.1092561339034 0.988181294469629 15.1092561339034 0.144948493142009 -74.6336987018538 
! Gamma         0                0                0                0                
! Port Impedance         50               0                50               0                
19.82                          0.141070277270675 -75.0389352879729 0.988739652717415 14.6957538499523 0.988739652717414 14.6957538499523 0.141070277270675 -75.0389352879729 
! Gamma         0                0                0                0                
! Port Impedance         50               0                50               0                
19.84                          0.137180377980875 -75.4441561011697 0.989284141577501 14.2817897633421 0.9892841415775  14.2817897633421 0.137180377980875 -75.4441561011696 
! Gamma         0                0                0                0                
! Port Impedance         50               0                50               0                
19.86                          0.133279081950662 -75.8493063718112 0.9898146082426  13.867375297282  0.9898146082426  13.867375297282  0.133279081950662 -75.8493063718113 
! Gamma         0                0                0                0                
! Port Impedance         50               0                50               0                
19.88                          0.129366679735535 -76.2543257751732 0.990330903246049 13.4525220206877 0.990330903246049 13.4525220206877 0.129366679735535 -76.2543257751733 
! Gamma         0                0                0                0                
! Port Impedance         50               0                50               0                
19.9                           0.125443465699392 -76.6591475634807 0.990832880549278 13.0372416451127 0.990832880549278 13.0372416451127 0.125443465699392 -76.6591475634808 
! Gamma         0                0                0                0                
! Port Impedance         50               0                50               0                
19.92                          0.121509737943526 -77.0636975241491 0.991320397627918 12.621546021578  0.991320397627919 12.621546021578  0.121509737943526 -77.0636975241491 
! Gamma         0                0                0                0                
! Port Impedance         50               0                50               0                
19.94                          0.117565798234011 -77.4678927223112 0.99179331555642 12.205447137308  0.99179331555642 12.205447137308  0.117565798234011 -77.4678927223115 
! Gamma         0                0                0                0                
! Port Impedance         50               0                50               0                
19.96                          0.113611951927838 -77.8716399737908 0.992251499091106 11.7889571123696 0.992251499091106 11.7889571123696 0.113611951927838 -77.871639973791 
! Gamma         0                0                0                0                
! Port Impedance         50               0                50               0                
19.98                          0.109648507898305 -78.2748339787379 0.992694816751559 11.3720881962184 0.992694816751559 11.3720881962184 0.109648507898305 -78.2748339787379 
! Gamma         0                0                0                0                
! Port Impedance         50               0                50               0                
20                             0.105675778460308 -78.6773550247277 0.993123140900244 10.9548527641537 0.993123140900244 10.9548527641537 0.105675778460308 -78.6773550247278 
! Gamma         0                0                0                0                
! Port Impedance         50               0                50               0                
! Noise Data
