! Touchstone file exported from Circuit Design 2026.1.0
!        File:           local/demo-project/Project1.aedt
!        Generated:      01:58:19 PM Apr 21, 2026
!        Design:         Circuit1
!        Project:        Project1
!        Setup:          LinearFrequency
!        Solution:       LinearFrequency
!
# GHz S MA R 50.000000
! Terminal data exported
! Port[1] = Port1
! Port[2] = Port2
0                              0.000116351230227611 -0               0.999883648769773 -0               0.999883648769772 -0               0.000116351230227737 -0               
! Gamma         0                0                0                0                
! Port Impedance         50               0                50               0                
0.02                           0.00451402559715355 87.9760186188495 0.999866839659342 -0.462831353538039 0.999866839659342 -0.462831353538039 0.00451402559715356 87.9760186188463 
! Gamma         0                0                0                0                
! Port Impedance         50               0                50               0                
0.04                           0.00901715624748498 88.2064749243002 0.999822698641923 -0.925179669468514 0.999822698641923 -0.925179669468514 0.00901715624748498 88.206474924301  
! Gamma         0                0                0                0                
! Port Impedance         50               0                50               0                
0.06                           0.0135131151349552 87.9706848648265 0.999757241974252 -1.38710810250442 0.999757241974252 -1.38710810250442 0.0135131151349552 87.9706848648255 
! Gamma         0                0                0                0                
! Port Impedance         50               0                50               0                
0.08                           0.0180034579591269 87.623690734924  0.999672160704183 -1.84873439915761 0.999672160704183 -1.84873439915761 0.0180034579591269 87.623690734924  
! Gamma         0                0                0                0                
! Port Impedance         50               0                50               0                
0.1                            0.0224890626952287 87.2331009595839 0.999567808368581 -2.31012093788209 0.999567808368581 -2.31012093788209 0.0224890626952287 87.2331009595836 
! Gamma         0                0                0                0                
! Port Impedance         50               0                50               0                
0.12                           0.0269702566355191 86.820785403442  0.999444226499856 -2.77129598117941 0.999444226499856 -2.77129598117941 0.0269702566355191 86.8207854034417 
! Gamma         0                0                0                0                
! Port Impedance         50               0                50               0                
0.14                           0.0314470669557147 86.3959959719571 0.999301391627755 -3.23226989604681 0.999301391627755 -3.23226989604681 0.0314470669557147 86.3959959719571 
! Gamma         0                0                0                0                
! Port Impedance         50               0                50               0                
0.16                           0.0359193541906348 85.9633526586443 0.999139277809739 -3.69304323440237 0.999139277809739 -3.69304323440237 0.0359193541906348 85.9633526586443 
! Gamma         0                0                0                0                
! Port Impedance         50               0                50               0                
0.18                           0.0403868810559564 85.5254394566275 0.998957872575057 -4.15361080998602 0.998957872575057 -4.15361080998602 0.0403868810559564 85.5254394566273 
! Gamma         0                0                0                0                
! Port Impedance         50               0                50               0                
0.2                            0.0448493497938814 85.0838263279859 0.998757180031529 -4.61396388679034 0.998757180031529 -4.61396388679034 0.0448493497938813 85.0838263279862 
! Gamma         0                0                0                0                
! Port Impedance         50               0                50               0                
0.22                           0.0493064236773343 84.6395295545874 0.998537220368218 -5.0740914303065 0.998537220368218 -5.0740914303065 0.0493064236773343 84.6395295545874 
! Gamma         0                0                0                0                
! Port Impedance         50               0                50               0                
0.24                           0.0537577400878989 84.1932409872614 0.998298028483595 -5.53398086414997 0.998298028483595 -5.53398086414997 0.053757740087899 84.1932409872611 
! Gamma         0                0                0                0                
! Port Impedance         50               0                50               0                
0.26                           0.0582029188614237 83.7454514402495 0.998039652561378 -5.99361855027736 0.998039652561378 -5.99361855027737 0.0582029188614237 83.7454514402492 
! Gamma         0                0                0                0                
! Port Impedance         50               0                50               0                
0.28                           0.0626415678432658 83.2965213636673 0.997762152819654 -6.45299010679111 0.997762152819654 -6.45299010679111 0.0626415678432657 83.2965213636673 
! Gamma         0                0                0                0                
! Port Impedance         50               0                50               0                
0.3                            0.0670732867265959 82.8467234274515 0.997465600468814 -6.91208062607852 0.997465600468814 -6.91208062607851 0.0670732867265959 82.8467234274517 
! Gamma         0                0                0                0                
! Port Impedance         50               0                50               0                
0.32                           0.0714976697942215 82.3962692881635 0.997150076856956 -7.37087482944592 0.997150076856956 -7.37087482944592 0.0714976697942214 82.3962692881637 
! Gamma         0                0                0                0                
! Port Impedance         50               0                50               0                
0.34                           0.0759143079369498 81.9453270258569 0.9968156727688  -7.82935717994076 0.9968156727688  -7.82935717994076 0.0759143079369498 81.9453270258566 
! Gamma         0                0                0                0                
! Port Impedance         50               0                50               0                
0.36                           0.0803227901806547 81.4940328562122 0.996462487845828 -8.28751196684083 0.996462487845828 -8.28751196684082 0.0803227901806548 81.4940328562121 
! Gamma         0                0                0                0                
! Port Impedance         50               0                50               0                
0.38                           0.0847227048710023 81.0424992087787 0.996090630100639 -8.74532337044863 0.996090630100639 -8.74532337044863 0.0847227048710023 81.0424992087786 
! Gamma         0                0                0                0                
! Port Impedance         50               0                50               0                
0.4                            0.089113640614021 80.5908204294214 0.995700215504157 -9.20277551287975 0.995700215504157 -9.20277551287975 0.0891136406140209 80.5908204294215 
! Gamma         0                0                0                0                
! Port Impedance         50               0                50               0                
0.42                           0.0934951870388011 80.1390768887348 0.995291367629112 -9.65985249868338 0.995291367629112 -9.65985249868338 0.0934951870388011 80.1390768887347 
! Gamma         0                0                0                0                
! Port Impedance         50               0                50               0                
0.44                           0.0978669354280408 79.6873379961356 0.994864217337033 -10.1165384479413 0.994864217337033 -10.1165384479413 0.0978669354280406 79.6873379961358 
! Gamma         0                0                0                0                
! Port Impedance         50               0                50               0                
0.46                           0.102228479248575 79.2356644471961 0.994418902498978 -10.5728175237055 0.994418902498978 -10.5728175237055 0.102228479248575 79.2356644471963 
! Gamma         0                0                0                0                
! Port Impedance         50               0                50               0                
0.48                           0.106579414604877 78.7841099237895 0.993955567742486 -11.028673955105 0.993955567742486 -11.028673955105 0.106579414604877 78.7841099237896 
! Gamma         0                0                0                0                
! Port Impedance         50               0                50               0                
0.5                            0.110919340632226 78.332722397255  0.993474364218933 -11.4840920570888 0.993474364218933 -11.4840920570888 0.110919340632226 78.3327223972549 
! Gamma         0                0                0                0                
! Port Impedance         50               0                50               0                
0.52                           0.115247859841857 77.8815451392049 0.992975449386844 -11.9390562475175 0.992975449386844 -11.9390562475176 0.115247859841857 77.8815451392049 
! Gamma         0                0                0                0                
! Port Impedance         50               0                50               0                
0.54                           0.119564578427252 77.4306175140823 0.992458986807646 -12.3935510621367 0.992458986807646 -12.3935510621367 0.119564578427252 77.4306175140823 
! Gamma         0                0                0                0                
! Port Impedance         50               0                50               0                
0.56                           0.123869106538535 76.9799756067478 0.991925145951156 -12.847561167833 0.991925145951156 -12.847561167833 0.123869106538535 76.9799756067479 
! Gamma         0                0                0                0                
! Port Impedance         50               0                50               0                
0.58                           0.128161058530244 76.5296527239437 0.991374102008695 -13.3010713744823 0.991374102008695 -13.3010713744823 0.128161058530244 76.5296527239437 
! Gamma         0                0                0                0                
! Port Impedance         50               0                50               0                
0.6                            0.132440053186571 76.0796797983167 0.990806035712147 -13.7540666456255 0.990806035712147 -13.7540666456255 0.132440053186571 76.0796797983166 
! Gamma         0                0                0                0                
! Port Impedance         50               0                50               0                
0.62                           0.136705713927244 75.6300857164306 0.990221133157667 -14.2065321081582 0.990221133157668 -14.2065321081582 0.136705713927244 75.6300857164307 
! Gamma         0                0                0                0                
! Port Impedance         50               0                50               0                
0.64                           0.140957668996553 75.1808975869521 0.989619585633031 -14.6584530611786 0.989619585633031 -14.6584530611786 0.140957668996553 75.180897586952  
! Gamma         0                0                0                0                
! Port Impedance         50               0                50               0                
0.66                           0.145195551637484 74.7321409613584 0.989001589447792 -15.1098149841102 0.989001589447792 -15.1098149841102 0.145195551637484 74.7321409613585 
! Gamma         0                0                0                0                
! Port Impedance         50               0                50               0                
0.68                           0.149419000252551 74.2838400166766 0.98836734576567 -15.5606035441895 0.98836734576567 -15.5606035441895 0.149419000252551 74.2838400166767 
! Gamma         0                0                0                0                
! Port Impedance         50               0                50               0                
0.7                            0.153627658552588 73.8360177076423 0.987717060438658 -16.0108046033946 0.987717060438658 -16.0108046033946 0.153627658552588 73.8360177076422 
! Gamma         0                0                0                0                
! Port Impedance         50               0                50               0                
0.72                           0.157821175694536 73.3886958940627 0.987050943842495 -16.4604042248731 0.987050943842495 -16.4604042248731 0.157821175694537 73.3886958940627 
! Gamma         0                0                0                0                
! Port Impedance         50               0                50               0                
0.74                           0.161999206409063 72.9418954479545 0.986369210713231 -16.90938867892  0.986369210713231 -16.90938867892  0.161999206409063 72.9418954479544 
! Gamma         0                0                0                0                
! Port Impedance         50               0                50               0                
0.76                           0.166161411118711 72.495636344085  0.985672079984677 -17.3577444485437 0.985672079984677 -17.3577444485437 0.166161411118711 72.495636344085  
! Gamma         0                0                0                0                
! Port Impedance         50               0                50               0                
0.78                           0.170307456047159 72.0499377368242 0.98495977462661 -17.8054582346552 0.984959774626609 -17.8054582346552 0.170307456047159 72.0499377368242 
! Gamma         0                0                0                0                
! Port Impedance         50               0                50               0                
0.8                            0.174437013320071 71.6048180256491 0.984232521483627 -18.2525169609076 0.984232521483627 -18.2525169609076 0.174437013320071 71.6048180256493 
! Gamma         0                0                0                0                
! Port Impedance         50               0                50               0                
0.82                           0.178549761057952 71.1602949111961 0.983490551114617 -18.6989077782087 0.983490551114617 -18.6989077782087 0.178549761057953 71.1602949111961 
! Gamma         0                0                0                0                
! Port Impedance         50               0                50               0                
0.84                           0.18264538346137 70.7163854434081 0.98273409763281 -19.144618068927 0.98273409763281 -19.144618068927 0.18264538346137 70.716385443408  
! Gamma         0                0                0                0                
! Port Impedance         50               0                50               0                
0.86                           0.186723570888826 70.2731060630453 0.981963398546427 -19.5896354508076 0.981963398546428 -19.5896354508076 0.186723570888826 70.2731060630454 
! Gamma         0                0                0                0                
! Port Impedance         50               0                50               0                
0.88                           0.190784019927574 69.8304726375986 0.981178694599949 -20.0339477806124 0.981178694599949 -20.0339477806124 0.190784019927574 69.8304726375986 
! Gamma         0                0                0                0                
! Port Impedance         50               0                50               0                
0.9                            0.1948264334576  69.3885004924728 0.98038022961606 -20.4775431574973 0.98038022961606 -20.4775431574972 0.1948264334576  69.3885004924728 
! Gamma         0                0                0                0                
! Port Impedance         50               0                50               0                
0.92                           0.198850520708997 68.9472044381547 0.979568250338317 -20.9204099261363 0.979568250338317 -20.9204099261363 0.198850520708997 68.9472044381545 
! Gamma         0                0                0                0                
! Port Impedance         50               0                50               0                
0.94                           0.202855997312915 68.5065987939663 0.978743006274621 -21.3625366796042 0.978743006274621 -21.3625366796042 0.202855997312915 68.5065987939663 
! Gamma         0                0                0                0                
! Port Impedance         50               0                50               0                
0.96                           0.206842585346276 68.0666974089041 0.977904749541572 -21.803912262024 0.977904749541572 -21.803912262024 0.206842585346277 68.066697408904  
! Gamma         0                0                0                0                
! Port Impedance         50               0                50               0                
0.98                           0.210810013370423 67.6275136799883 0.977053734709788 -22.2445257709885 0.977053734709788 -22.2445257709885 0.210810013370422 67.6275136799883 
! Gamma         0                0                0                0                
! Port Impedance         50               0                50               0                
1                              0.214758016463849 67.1890605684769 0.976190218650281 -22.6843665597626 0.976190218650281 -22.6843665597627 0.214758016463849 67.1890605684769 
! Gamma         0                0                0                0                
! Port Impedance         50               0                50               0                
1.02                           0.218686336249188 66.7513506142487 0.975314460381999 -23.1234242392725 0.975314460381999 -23.1234242392725 0.218686336249188 66.7513506142488 
! Gamma         0                0                0                0                
! Port Impedance         50               0                50               0                
1.04                           0.222594720914573 66.3143959486097 0.974426720920604 -23.5616886798879 0.974426720920604 -23.5616886798879 0.222594720914573 66.3143959486098 
! Gamma         0                0                0                0                
! Port Impedance         50               0                50               0                
1.06                           0.226482925229543 65.8782083057459 0.973527263128609 -23.9991500130038 0.973527263128609 -23.9991500130037 0.226482925229543 65.8782083057459 
! Gamma         0                0                0                0                
! Port Impedance         50               0                50               0                
1.08                           0.230350710555609 65.4427990330045 0.972616351566966 -24.4357986324249 0.972616351566966 -24.4357986324249 0.230350710555609 65.4427990330044 
! Gamma         0                0                0                0                
! Port Impedance         50               0                50               0                
1.1                            0.234197844851636 65.0081791001694 0.971694252348198 -24.8716251955612 0.971694252348198 -24.8716251955612 0.234197844851636 65.0081791001695 
! Gamma         0                0                0                0                
! Port Impedance         50               0                50               0                
1.12                           0.238024102674165 64.574359107865  0.970761232991173 -25.3066206244353 0.970761232991173 -25.3066206244353 0.238024102674165 64.5743591078651 
! Gamma         0                0                0                0                
! Port Impedance         50               0                50               0                
1.14                           0.24182926517281 64.1413492952097 0.969817562277629 -25.7407761065106 0.969817562277629 -25.7407761065106 0.24182926517281 64.1413492952097 
! Gamma         0                0                0                0                
! Port Impedance         50               0                50               0                
1.16                           0.245613120080876 63.7091595468195 0.968863510110526 -26.1740830953419 0.968863510110526 -26.1740830953419 0.245613120080876 63.7091595468194 
! Gamma         0                0                0                0                
! Port Impedance         50               0                50               0                
1.18                           0.249375461701313 63.2777993992528 0.967899347374321 -26.6065333110536 0.967899347374321 -26.6065333110536 0.249375461701312 63.2777993992528 
! Gamma         0                0                0                0                
! Port Impedance         50               0                50               0                
1.2                            0.253116090888153 62.847278046972  0.966925345797267 -27.0381187406514 0.966925345797267 -27.0381187406514 0.253116090888153 62.8472780469721 
! Gamma         0                0                0                0                
! Port Impedance         50               0                50               0                
1.22                           0.256834815023567 62.4176043478877 0.9659417778158  -27.4688316381693 0.9659417778158  -27.4688316381693 0.256834815023567 62.4176043478877 
! Gamma         0                0                0                0                
! Port Impedance         50               0                50               0                
1.24                           0.260531447990656 61.988786828545  0.964948916441111 -27.898664524659 0.964948916441111 -27.898664524659 0.260531447990656 61.9887868285451 
! Gamma         0                0                0                0                
! Port Impedance         50               0                50               0                
1.26                           0.264205810142138 61.5608336890023 0.963947035127969 -28.3276101880239 0.963947035127969 -28.3276101880239 0.264205810142138 61.5608336890023 
! Gamma         0                0                0                0                
! Port Impedance         50               0                50               0                
1.28                           0.267857728265042 61.1337528074443 0.962936407645885 -28.755661682703 0.962936407645886 -28.755661682703 0.267857728265042 61.1337528074443 
! Gamma         0                0                0                0                
! Port Impedance         50               0                50               0                
1.3                            0.271487035541557 60.7075517445705 0.961917307952662 -29.1828123292085 0.961917307952662 -29.1828123292085 0.271487035541557 60.7075517445705 
! Gamma         0                0                0                0                
! Port Impedance         50               0                50               0                
1.32                           0.275093571506167 60.282237747789  0.96089001007042 -29.6090557135218 0.960890010070421 -29.6090557135218 0.275093571506167 60.2822377477891 
! Gamma         0                0                0                0                
! Port Impedance         50               0                50               0                
1.34                           0.278677181999207 59.8578177552483 0.959854787964141 -30.034385686352 0.959854787964141 -30.034385686352 0.278677181999207 59.8578177552483 
! Gamma         0                0                0                0                
! Port Impedance         50               0                50               0                
1.36                           0.282237719116978 59.4342983997289 0.958811915422799 -30.4587963622606 0.958811915422799 -30.4587963622606 0.282237719116978 59.434298399729  
! Gamma         0                0                0                0                
! Port Impedance         50               0                50               0                
1.38                           0.285775041158551 59.011686012419  0.957761665943124 -30.8822821186575 0.957761665943124 -30.8822821186575 0.285775041158551 59.011686012419  
! Gamma         0                0                0                0                
! Port Impedance         50               0                50               0                
1.4                            0.289289012569399 58.589986626592  0.956704312616046 -31.3048375946717 0.956704312616046 -31.3048375946717 0.289289012569399 58.589986626592  
! Gamma         0                0                0                0                
! Port Impedance         50               0                50               0                
1.42                           0.292779503881989 58.1692059812039 0.955640128015865 -31.7264576899014 0.955640128015865 -31.7264576899014 0.292779503881989 58.1692059812039 
! Gamma         0                0                0                0                
! Port Impedance         50               0                50               0                
1.44                           0.296246391653474 57.7493495244233 0.95456938409219 -32.1471375630477 0.95456938409219 -32.1471375630478 0.296246391653474 57.7493495244233 
! Gamma         0                0                0                0                
! Port Impedance         50               0                50               0                
1.46                           0.299689558400605 57.3304224171075 0.953492352064666 -32.566872630436 0.953492352064666 -32.566872630436 0.299689558400605 57.3304224171075 
! Gamma         0                0                0                0                
! Port Impedance         50               0                50               0                
1.48                           0.303108892532011 56.9124295362356 0.952409302320541 -32.9856585644283 0.95240930232054 -32.9856585644283 0.303108892532011 56.9124295362356 
! Gamma         0                0                0                0                
! Port Impedance         50               0                50               0                
1.5                            0.306504288277973 56.4953754783068 0.95132050431508 -33.4034912917331 0.95132050431508 -33.4034912917331 0.306504288277973 56.4953754783068 
! Gamma         0                0                0                0                
! Port Impedance         50               0                50               0                
1.52                           0.309875645617812 56.0792645627132 0.95022622647486 -33.8203669916135 0.95022622647486 -33.8203669916135 0.309875645617812 56.0792645627132 
! Gamma         0                0                0                0                
! Port Impedance         50               0                50               0                
1.54                           0.31322287020504 55.6641008350931 0.949126736103954 -34.2362820940013 0.949126736103954 -34.2362820940013 0.31322287020504 55.664100835093  
! Gamma         0                0                0                0                
! Port Impedance         50               0                50               0                
1.56                           0.316545873290389 55.2498880706697 0.948022299293028 -34.6512332775178 0.948022299293028 -34.6512332775178 0.316545873290389 55.2498880706698 
! Gamma         0                0                0                0                
! Port Impedance         50               0                50               0                
1.58                           0.319844571642842 54.8366297775825 0.946913180831345 -35.0652174674081 0.946913180831344 -35.0652174674081 0.319844571642842 54.8366297775824 
! Gamma         0                0                0                0                
! Port Impedance         50               0                50               0                
1.6                            0.323118887468805 54.424329200212  0.945799644121703 -35.4782318333909 0.945799644121703 -35.4782318333909 0.323118887468805 54.424329200212  
! Gamma         0                0                0                0                
! Port Impedance         50               0                50               0                
1.62                           0.326368748329526 54.012989322504  0.944681951098286 -35.8902737874292 0.944681951098287 -35.8902737874292 0.326368748329526 54.0129893225041 
! Gamma         0                0                0                0                
! Port Impedance         50               0                50               0                
1.64                           0.329594087056901 53.6026128712942 0.943560362147445 -36.3013409814247 0.943560362147445 -36.3013409814248 0.329594087056901 53.6026128712942 
! Gamma         0                0                0                0                
! Port Impedance         50               0                50               0                
1.66                           0.332794841667767 53.1932023196363 0.942435136031386 -36.7114313048413 0.942435136031386 -36.7114313048413 0.332794841667767 53.1932023196363 
! Gamma         0                0                0                0                
! Port Impedance         50               0                50               0                
1.68                           0.335970955276814 52.7847598901341 0.941306529814773 -37.1205428822592 0.941306529814773 -37.1205428822592 0.335970955276813 52.7847598901341 
! Gamma         0                0                0                0                
! Port Impedance         50               0                50               0                
1.7                            0.339122376008226 52.3772875582797 0.940174798794224 -37.5286740708662 0.940174798794224 -37.5286740708662 0.339122376008226 52.3772875582797 
! Gamma         0                0                0                0                
! Port Impedance         50               0                50               0                
1.72                           0.342249056906163 51.9707870557983 0.939040196430689 -37.9358234578878 0.939040196430689 -37.9358234578878 0.342249056906163 51.9707870557983 
! Gamma         0                0                0                0                
! Port Impedance         50               0                50               0                
1.74                           0.345350955844198 51.5652598739994 0.937902974284674 -38.3419898579608 0.937902974284674 -38.3419898579608 0.345350955844198 51.5652598739994 
! Gamma         0                0                0                0                
! Port Impedance         50               0                50               0                
1.76                           0.34842803543381 51.1607072671355 0.936763381954334 -38.7471723104537 0.936763381954333 -38.7471723104537 0.34842803543381 51.1607072671354 
! Gamma         0                0                0                0                
! Port Impedance         50               0                50               0                
1.78                           0.351480262932048 50.7571302557669 0.935621667016349 -39.1513700767376 0.935621667016348 -39.1513700767376 0.351480262932048 50.7571302557668 
! Gamma         0                0                0                0                
! Port Impedance         50               0                50               0                
1.8                            0.354507610148467 50.3545296301339 0.934478074969612 -39.5545826374114 0.934478074969612 -39.5545826374114 0.354507610148467 50.3545296301339 
! Gamma         0                0                0                0                
! Port Impedance         50               0                50               0                
1.82                           0.357510053351426 49.9529059535341 0.933332849181668 -39.9568096894845 0.933332849181669 -39.9568096894845 0.357510053351426 49.9529059535342 
! Gamma         0                0                0                0                
! Port Impedance         50               0                50               0                
1.84                           0.360487573173864 49.5522595657051 0.932186230837881 -40.3580511435194 0.93218623083788 -40.3580511435194 0.360487573173864 49.5522595657051 
! Gamma         0                0                0                0                
! Port Impedance         50               0                50               0                
1.86                           0.363440154518632 49.1525905862109 0.931038458893287 -40.75830712074  0.931038458893287 -40.75830712074  0.363440154518633 49.1525905862108 
! Gamma         0                0                0                0                
! Port Impedance         50               0                50               0                
1.88                           0.366367786463486 48.7538989178323 0.929889770027125 -41.1575779501062 0.929889770027125 -41.1575779501062 0.366367786463486 48.7538989178323 
! Gamma         0                0                0                0                
! Port Impedance         50               0                50               0                
1.9                            0.369270462165818 48.3561842499592 0.928740398599963 -41.5558641653596 0.928740398599963 -41.5558641653596 0.369270462165817 48.3561842499591 
! Gamma         0                0                0                0                
! Port Impedance         50               0                50               0                
1.92                           0.37214817876723 47.9594460619824 0.927590576613423 -41.9531665020427 0.927590576613423 -41.9531665020427 0.372148178767229 47.9594460619824 
! Gamma         0                0                0                0                
! Port Impedance         50               0                50               0                
1.94                           0.375000937298014 47.5636836266869 0.926440533672431 -42.3494858944952 0.926440533672431 -42.3494858944952 0.375000937298014 47.5636836266869 
! Gamma         0                0                0                0                
! Port Impedance         50               0                50               0                
1.96                           0.377828742581634 47.1688960136418 0.925290496949966 -42.7448234728298 0.925290496949966 -42.7448234728299 0.377828742581634 47.1688960136418 
! Gamma         0                0                0                0                
! Port Impedance         50               0                50               0                
1.98                           0.380631603139285 46.7750820925877 0.924140691154266 -43.1391805598905 0.924140691154266 -43.1391805598905 0.380631603139285 46.7750820925877 
! Gamma         0                0                0                0                
! Port Impedance         50               0                50               0                
2                              0.383409531094594 46.382240536819  0.922991338498421 -43.5325586681962 0.922991338498421 -43.5325586681961 0.383409531094594 46.3822405368191 
! Gamma         0                0                0                0                
! Port Impedance         50               0                50               0                
2.02                           0.386162542078555 45.9903698265607 0.921842658672338 -43.924959496873 0.921842658672338 -43.924959496873 0.386162542078555 45.9903698265607 
! Gamma         0                0                0                0                
! Port Impedance         50               0                50               0                
2.04                           0.388890655134752 45.5994682523367 0.920694868817008 -44.3163849285768 0.920694868817008 -44.3163849285768 0.388890655134752 45.5994682523367 
! Gamma         0                0                0                0                
! Port Impedance         50               0                50               0                
2.06                           0.39159389262494 45.2095339183293 0.919548183501032 -44.7068370264092 0.919548183501032 -44.7068370264092 0.39159389262494 45.2095339183293 
! Gamma         0                0                0                0                
! Port Impedance         50               0                50               0                
2.08                           0.394272280135049 44.8205647457289 0.918402814699351 -45.0963180308294 0.918402814699351 -45.0963180308294 0.394272280135049 44.8205647457289 
! Gamma         0                0                0                0                
! Port Impedance         50               0                50               0                
2.1                            0.396925846381682 44.43255847607   0.91725897177414 -45.4848303565642 0.91725897177414 -45.4848303565642 0.396925846381682 44.43255847607   
! Gamma         0                0                0                0                
! Port Impedance         50               0                50               0                
2.12                           0.399554623119143 44.0455126745556 0.916116861457804 -45.8723765895187 0.916116861457804 -45.8723765895187 0.399554623119142 44.0455126745556 
! Gamma         0                0                0                0                
! Port Impedance         50               0                50               0                
2.14                           0.40215864504707 43.6594247333645 0.914976687838029 -46.2589594836897 0.914976687838029 -46.2589594836897 0.402158645047071 43.6594247333645 
! Gamma         0                0                0                0                
! Port Impedance         50               0                50               0                
2.16                           0.404737949718728 43.2742918749442 0.913838652344828 -46.6445819580841 0.913838652344828 -46.6445819580841 0.404737949718728 43.2742918749442 
! Gamma         0                0                0                0                
! Port Impedance         50               0                50               0                
2.18                           0.407292577449983 42.8901111552849 0.91270295373954 -47.0292470936443 0.91270295373954 -47.0292470936443 0.407292577449983 42.8901111552849 
! Gamma         0                0                0                0                
! Port Impedance         50               0                50               0                
2.2                            0.409822571229051 42.5068794671739 0.91156978810572 -47.4129581301824 0.911569788105719 -47.4129581301824 0.40982257122905 42.5068794671739 
! Gamma         0                0                0                0                
! Port Impedance         50               0                50               0                
2.22                           0.412327976627019 42.124593543431  0.910439348841865 -47.7957184633264 0.910439348841866 -47.7957184633264 0.412327976627019 42.124593543431  
! Gamma         0                0                0                0                
! Port Impedance         50               0                50               0                
2.24                           0.414808841709223 41.7432499601206 0.909311826655942 -48.177531641478 0.909311826655942 -48.177531641478 0.414808841709223 41.7432499601206 
! Gamma         0                0                0                0                
! Port Impedance         50               0                50               0                
2.26                           0.417265216947485 41.3628451397415 0.908187409561621 -48.5584013627855 0.908187409561621 -48.5584013627855 0.417265216947485 41.3628451397415 
! Gamma         0                0                0                0                
! Port Impedance         50               0                50               0                
2.28                           0.41969715513328 40.9833753543925 0.907066282876215 -48.9383314721335 0.907066282876215 -48.9383314721335 0.41969715513328 40.9833753543924 
! Gamma         0                0                0                0                
! Port Impedance         50               0                50               0                
2.3                            0.42210471129184 40.604836728912  0.905948629220225 -49.3173259581501 0.905948629220225 -49.3173259581501 0.42210471129184 40.604836728912  
! Gamma         0                0                0                0                
! Port Impedance         50               0                50               0                
2.32                           0.424487942597252 40.2272252439917 0.904834628518468 -49.6953889502334 0.904834628518468 -49.6953889502334 0.424487942597251 40.2272252439917 
! Gamma         0                0                0                0                
! Port Impedance         50               0                50               0                
2.34                           0.426846908288556 39.8505367392622 0.903724458002716 -50.0725247155995 0.903724458002716 -50.0725247155995 0.426846908288556 39.8505367392622 
! Gamma         0                0                0                0                
! Port Impedance         50               0                50               0                
2.36                           0.4291816695869  39.4747669163499 0.902618292215807 -50.4487376563528 0.902618292215807 -50.4487376563528 0.4291816695869  39.4747669163499 
! Gamma         0                0                0                0                
! Port Impedance         50               0                50               0                
2.38                           0.431492289613746 39.0999113419045 0.901516303017164 -50.8240323065797 0.901516303017164 -50.8240323065797 0.431492289613746 39.0999113419045 
! Gamma         0                0                0                0                
! Port Impedance         50               0                50               0                
2.4                            0.433778833310177 38.7259654505956 0.900418659589675 -51.1984133294677 0.900418659589675 -51.1984133294677 0.433778833310177 38.7259654505956 
! Gamma         0                0                0                0                
! Port Impedance         50               0                50               0                
2.42                           0.436041367357313 38.3529245480781 0.899325528447887 -51.5718855144506 0.899325528447887 -51.5718855144506 0.436041367357313 38.3529245480781 
! Gamma         0                0                0                0                
! Port Impedance         50               0                50               0                
2.44                           0.438279960097864 37.9807838139249 0.898237073447454 -51.944453774381 0.898237073447454 -51.944453774381 0.438279960097864 37.9807838139249 
! Gamma         0                0                0                0                
! Port Impedance         50               0                50               0                
2.46                           0.440494681458827 37.6095383045262 0.897153455795793 -52.3161231427312 0.897153455795793 -52.3161231427312 0.440494681458827 37.6095383045263 
! Gamma         0                0                0                0                
! Port Impedance         50               0                50               0                
2.48                           0.44268560287535 37.2391829559561 0.896074834063902 -52.6868987708237 0.896074834063902 -52.6868987708237 0.44268560287535 37.2391829559561 
! Gamma         0                0                0                0                
! Port Impedance         50               0                50               0                
2.5                            0.444852797215784 36.8697125868028 0.895001364199279 -53.0567859250916 0.895001364199279 -53.0567859250916 0.444852797215785 36.8697125868028 
! Gamma         0                0                0                0                
! Port Impedance         50               0                50               0                
2.52                           0.446996338707924 36.5011219009648 0.893933199539912 -53.4257899843714 0.893933199539912 -53.4257899843714 0.446996338707924 36.5011219009648 
! Gamma         0                0                0                0                
! Port Impedance         50               0                50               0                
2.54                           0.449116302866443 36.1334054904112 0.89287049082927 -53.793916437226 0.89287049082927 -53.793916437226 0.449116302866444 36.1334054904112 
! Gamma         0                0                0                0                
! Port Impedance         50               0                50               0                
2.56                           0.451212766421561 35.7665578379041 0.891813386232269 -54.1611708793027 0.89181338623227 -54.1611708793027 0.451212766421561 35.7665578379041 
! Gamma         0                0                0                0                
! Port Impedance         50               0                50               0                
2.58                           0.45328580724891 35.4005733196863 0.890762031352152 -54.5275590107228 0.890762031352152 -54.5275590107228 0.45328580724891 35.4005733196864 
! Gamma         0                0                0                0                
! Port Impedance         50               0                50               0                
2.6                            0.455335504300643 35.0354462081295 0.889716569248244 -54.8930866335067 0.889716569248244 -54.8930866335067 0.455335504300643 35.0354462081295 
! Gamma         0                0                0                0                
! Port Impedance         50               0                50               0                
2.62                           0.457361937537765 34.6711706743454 0.888677140454536 -55.2577596490334 0.888677140454536 -55.2577596490334 0.457361937537765 34.6711706743454 
! Gamma         0                0                0                0                
! Port Impedance         50               0                50               0                
2.64                           0.4593651878637  34.3077407907588 0.887643882999058 -55.6215840555352 0.887643882999058 -55.6215840555352 0.4593651878637  34.3077407907587 
! Gamma         0                0                0                0                
! Port Impedance         50               0                50               0                
2.66                           0.461345337059089 33.9451505336416 0.886616932423986 -55.9845659456283 0.886616932423986 -55.9845659456283 0.461345337059089 33.9451505336416 
! Gamma         0                0                0                0                
! Port Impedance         50               0                50               0                
2.68                           0.463302467717833 33.5833937856082 0.885596421806464 -56.34671150388  0.885596421806464 -56.34671150388  0.463302467717833 33.5833937856082 
! Gamma         0                0                0                0                
! Port Impedance         50               0                50               0                
2.7                            0.465236663184359 33.2224643380711 0.884582481780069 -56.7080270044117 0.884582481780069 -56.7080270044117 0.46523666318436 33.222464338071  
! Gamma         0                0                0                0                
! Port Impedance         50               0                50               0                
2.72                           0.46714800749213 32.8623558936576 0.88357524055691 -57.0685188085406 0.88357524055691 -57.0685188085406 0.46714800749213 32.8623558936576 
! Gamma         0                0                0                0                
! Port Impedance         50               0                50               0                
2.74                           0.469036585303377 32.5030620685869 0.882574823950296 -57.4281933624567 0.882574823950296 -57.4281933624567 0.469036585303376 32.5030620685869 
! Gamma         0                0                0                0                
! Port Impedance         50               0                50               0                
2.76                           0.470902481850057 32.144576395007  0.881581355397957 -57.7870571949392 0.881581355397957 -57.7870571949392 0.470902481850057 32.144576395007  
! Gamma         0                0                0                0                
! Port Impedance         50               0                50               0                
2.78                           0.472745782876042 31.7868923232917 0.880594955985758 -58.1451169151094 0.880594955985759 -58.1451169151094 0.472745782876042 31.7868923232917 
! Gamma         0                0                0                0                
! Port Impedance         50               0                50               0                
2.8                            0.474566574580505 31.4300032242982 0.879615744471893 -58.5023792102226 0.879615744471893 -58.5023792102226 0.474566574580505 31.4300032242982 
! Gamma         0                0                0                0                
! Port Impedance         50               0                50               0                
2.82                           0.476364943562528 31.0739023915836 0.878643837311497 -58.8588508434979 0.878643837311497 -58.8588508434979 0.476364943562528 31.0739023915836 
! Gamma         0                0                0                0                
! Port Impedance         50               0                50               0                
2.84                           0.478140976766902 30.7185830435826 0.877679348681676 -59.2145386519855 0.877679348681676 -59.2145386519855 0.478140976766902 30.7185830435826 
! Gamma         0                0                0                0                
! Port Impedance         50               0                50               0                
2.86                           0.479894761431119 30.3640383257439 0.87672239050688 -59.5694495444738 0.87672239050688 -59.5694495444738 0.479894761431119 30.3640383257439 
! Gamma         0                0                0                0                
! Port Impedance         50               0                50               0                
2.88                           0.481626385033547 30.0102613126274 0.875773072484626 -59.9235904994337 0.875773072484626 -59.9235904994337 0.481626385033548 30.0102613126274 
! Gamma         0                0                0                0                
! Port Impedance         50               0                50               0                
2.9                            0.483335935242778 29.657245009961  0.874831502111509 -60.2769685630018 0.874831502111509 -60.2769685630018 0.483335935242778 29.657245009961  
! Gamma         0                0                0                0                
! Port Impedance         50               0                50               0                
2.92                           0.485023499868124 29.3049823566578 0.873897784709484 -60.6295908470017 0.873897784709484 -60.6295908470017 0.485023499868124 29.3049823566578 
! Gamma         0                0                0                0                
! Port Impedance         50               0                50               0                
2.94                           0.48668916681128 28.9534662267935 0.872972023452396 -60.9814645270042 0.872972023452395 -60.9814645270042 0.48668916681128 28.9534662267935 
! Gamma         0                0                0                0                
! Port Impedance         50               0                50               0                
2.96                           0.488333024019112 28.602689431544  0.872054319392708 -61.3325968404253 0.872054319392708 -61.3325968404253 0.488333024019112 28.602689431544  
! Gamma         0                0                0                0                
! Port Impedance         50               0                50               0                
2.98                           0.489955159437569 28.2526447210836 0.871144771488419 -61.6829950846618 0.871144771488419 -61.6829950846618 0.489955159437569 28.2526447210836 
! Gamma         0                0                0                0                
! Port Impedance         50               0                50               0                
3                              0.49155566096671 27.9033247864447 0.870243476630135 -62.0326666152663 0.870243476630135 -62.0326666152663 0.491555660966711 27.9033247864447 
! Gamma         0                0                0                0                
! Port Impedance         50               0                50               0                
3.02                           0.49313461641683 27.5547222613371 0.869350529668266 -62.3816188441586 0.869350529668266 -62.3816188441586 0.493134616416829 27.5547222613371 
! Gamma         0                0                0                0                
! Port Impedance         50               0                50               0                
3.04                           0.494692113465659 27.20682972393   0.868466023440328 -62.7298592378755 0.868466023440328 -62.7298592378755 0.494692113465659 27.20682972393   
! Gamma         0                0                0                0                
! Port Impedance         50               0                50               0                
3.06                           0.496228239616649 26.8596396985943 0.867590048798324 -63.0773953158577 0.867590048798325 -63.0773953158577 0.496228239616649 26.8596396985943 
! Gamma         0                0                0                0                
! Port Impedance         50               0                50               0                
3.08                           0.497743082158292 26.5131446576077 0.866722694636181 -63.4242346487744 0.866722694636181 -63.4242346487744 0.497743082158291 26.5131446576077 
! Gamma         0                0                0                0                
! Port Impedance         50               0                50               0                
3.1                            0.499236728124495 26.167337022821  0.86586404791721 -63.7703848568841 0.86586404791721 -63.7703848568841 0.499236728124495 26.167337022821  
! Gamma         0                0                0                0                
! Port Impedance         50               0                50               0                
3.12                           0.500709264255974 25.8222091672872 0.865014193701586 -64.1158536084325 0.865014193701586 -64.1158536084325 0.500709264255974 25.8222091672872 
! Gamma         0                0                0                0                
! Port Impedance         50               0                50               0                
3.14                           0.502160776962653 25.4777534168534 0.86417321517381 -64.4606486180868 0.86417321517381 -64.4606486180868 0.502160776962653 25.4777534168534 
! Gamma         0                0                0                0                
! Port Impedance         50               0                50               0                
3.16                           0.503591352287057 25.1339620517155 0.863341193670139 -64.8047776454061 0.863341193670138 -64.8047776454061 0.503591352287056 25.1339620517155 
! Gamma         0                0                0                0                
! Port Impedance         50               0                50               0                
3.18                           0.505001075868683 24.7908273079366 0.862518208705967 -65.1482484933471 0.862518208705967 -65.1482484933471 0.505001075868683 24.7908273079366 
! Gamma         0                0                0                0                
! Port Impedance         50               0                50               0                
3.2                            0.506390032909334 24.4483413789289 0.861704338003128 -65.4910690068057 0.861704338003128 -65.4910690068057 0.506390032909334 24.4483413789289 
! Gamma         0                0                0                0                
! Port Impedance         50               0                50               0                
3.22                           0.507758308139388 24.1064964168999 0.860899657517117 -65.8332470711938 0.860899657517117 -65.8332470711938 0.507758308139388 24.1064964168999 
! Gamma         0                0                0                0                
! Port Impedance         50               0                50               0                
3.24                           0.509105985785003 23.7652845342634 0.860104241464197 -66.1747906110496 0.860104241464197 -66.1747906110496 0.509105985785003 23.7652845342634 
! Gamma         0                0                0                0                
! Port Impedance         50               0                50               0                
3.26                           0.510433149536229 23.4246978050154 0.859318162348386 -66.5157075886842 0.859318162348386 -66.5157075886842 0.510433149536229 23.4246978050154 
! Gamma         0                0                0                0                
! Port Impedance         50               0                50               0                
3.28                           0.511739882516015 23.084728266075  0.8585414909883  -66.8560060028599 0.8585414909883  -66.8560060028599 0.511739882516015 23.084728266075  
! Gamma         0                0                0                0                
! Port Impedance         50               0                50               0                
3.3                            0.513026267250096 22.7453679185916 0.857774296543845 -67.1956938875037 0.857774296543845 -67.1956938875037 0.513026267250096 22.7453679185916 
! Gamma         0                0                0                0                
! Port Impedance         50               0                50               0                
3.32                           0.514292385637735 22.4066087292188 0.857016646542734 -67.5347793104533 0.857016646542734 -67.5347793104533 0.514292385637735 22.4066087292188 
! Gamma         0                0                0                0                
! Port Impedance         50               0                50               0                
3.34                           0.515538318923315 22.0684426313537 0.856268606906819 -67.8732703722352 0.856268606906819 -67.8732703722352 0.515538318923315 22.0684426313537 
! Gamma         0                0                0                0                
! Port Impedance         50               0                50               0                
3.36                           0.51676414766876 21.7308615263448 0.855530241978228 -68.2111752048762 0.855530241978228 -68.2111752048762 0.51676414766876 21.7308615263448 
! Gamma         0                0                0                0                
! Port Impedance         50               0                50               0                
3.38                           0.517969951726756 21.3938572846671 0.854801614545285 -68.5485019707454 0.854801614545284 -68.5485019707454 0.517969951726756 21.3938572846671 
! Gamma         0                0                0                0                
! Port Impedance         50               0                50               0                
3.4                            0.519155810214781 21.0574217470646 0.854082785868211 -68.8852588614288 0.854082785868211 -68.8852588614288 0.519155810214781 21.0574217470646 
! Gamma         0                0                0                0                
! Port Impedance         50               0                50               0                
3.42                           0.520321801489902 20.7215467256628 0.853373815704587 -69.2214540966337 0.853373815704587 -69.2214540966337 0.520321801489902 20.7215467256628 
! Gamma         0                0                0                0                
! Port Impedance         50               0                50               0                
3.44                           0.521468003124339 20.3862240050492 0.852674762334566 -69.5570959231242 0.852674762334566 -69.5570959231242 0.521468003124339 20.3862240050492 
! Gamma         0                0                0                0                
! Port Impedance         50               0                50               0                
3.46                           0.522594491881769 20.0514453433235 0.851985682585837 -69.8921926136865 0.851985682585837 -69.8921926136865 0.52259449188177 20.0514453433235 
! Gamma         0                0                0                0                
! Port Impedance         50               0                50               0                
3.48                           0.523701343694367 19.7172024731187 0.851306631858307 -70.2267524661236 0.851306631858307 -70.2267524661236 0.523701343694367 19.7172024731187 
! Gamma         0                0                0                0                
! Port Impedance         50               0                50               0                
3.5                            0.52478863364055 19.3834871025916 0.850637664148517 -70.5607838022789 0.850637664148517 -70.5607838022789 0.52478863364055 19.3834871025916 
! Gamma         0                0                0                0                
! Port Impedance         50               0                50               0                
3.52                           0.525856435923421 19.0502909163854 0.849978832073767 -70.8942949670887 0.849978832073767 -70.8942949670887 0.525856435923421 19.0502909163855 
! Gamma         0                0                0                0                
! Port Impedance         50               0                50               0                
3.54                           0.526904823849902 18.7176055765632 0.849330186895941 -71.2272943276624 0.849330186895941 -71.2272943276624 0.526904823849902 18.7176055765632 
! Gamma         0                0                0                0                
! Port Impedance         50               0                50               0                
3.56                           0.527933869810517 18.3854227235136 0.848691778545033 -71.55979027239  0.848691778545033 -71.55979027239  0.527933869810517 18.3854227235136 
! Gamma         0                0                0                0                
! Port Impedance         50               0                50               0                
3.58                           0.528943645259837 18.0537339768297 0.848063655642357 -71.8917912100779 0.848063655642356 -71.8917912100779 0.528943645259837 18.0537339768297 
! Gamma         0                0                0                0                
! Port Impedance         50               0                50               0                
3.6                            0.529934220697554 17.7225309361598 0.847445865523441 -72.2233055691095 0.847445865523441 -72.2233055691095 0.529934220697554 17.7225309361598 
! Gamma         0                0                0                0                
! Port Impedance         50               0                50               0                
3.62                           0.530905665650175 17.3918051820331 0.846838454260593 -72.5543417966332 0.846838454260593 -72.5543417966332 0.530905665650175 17.3918051820331 
! Gamma         0                0                0                0                
! Port Impedance         50               0                50               0                
3.64                           0.531858048653321 17.0615482766586 0.846241466685131 -72.8849083577753 0.846241466685131 -72.8849083577753 0.53185804865332 17.0615482766586 
! Gamma         0                0                0                0                
! Port Impedance         50               0                50               0                
3.66                           0.532791437234611 16.7317517646988 0.845654946409279 -73.2150137348785 0.845654946409279 -73.2150137348785 0.532791437234611 16.7317517646988 
! Gamma         0                0                0                0                
! Port Impedance         50               0                50               0                
3.68                           0.533705897897131 16.402407174019  0.84507893584771 -73.5446664267644 0.84507893584771 -73.5446664267644 0.533705897897131 16.402407174019  
! Gamma         0                0                0                0                
! Port Impedance         50               0                50               0                
3.7                            0.534601496103452 16.0735060164112 0.844513476238744 -73.8738749480206 0.844513476238744 -73.8738749480206 0.534601496103451 16.0735060164112 
! Gamma         0                0                0                0                
! Port Impedance         50               0                50               0                
3.72                           0.535478296260201 15.7450397882958 0.843958607665189 -74.2026478283109 0.843958607665189 -74.2026478283109 0.535478296260201 15.7450397882958 
! Gamma         0                0                0                0                
! Port Impedance         50               0                50               0                
3.74                           0.536336361703168 15.4169999713982 0.84341436907482 -74.530993611709 0.843414369074819 -74.530993611709 0.536336361703168 15.4169999713982 
! Gamma         0                0                0                0                
! Port Impedance         50               0                50               0                
3.76                           0.537175754682917 15.0893780334035 0.842880798300488 -74.8589208560545 0.842880798300488 -74.8589208560545 0.537175754682917 15.0893780334035 
! Gamma         0                0                0                0                
! Port Impedance         50               0                50               0                
3.78                           0.537996536350927 14.7621654285891 0.842357932079868 -75.1864381323311 0.842357932079868 -75.1864381323311 0.537996536350927 14.762165428589  
! Gamma         0                0                0                0                
! Port Impedance         50               0                50               0                
3.8                            0.538798766746201 14.4353535984348 0.841845806074826 -75.5135540240665 0.841845806074826 -75.5135540240665 0.538798766746201 14.4353535984347 
! Gamma         0                0                0                0                
! Port Impedance         50               0                50               0                
3.82                           0.53958250478237 14.1089339722121 0.841344454890407 -75.840277126753 0.841344454890407 -75.840277126753 0.53958250478237 14.1089339722121 
! Gamma         0                0                0                0                
! Port Impedance         50               0                50               0                
3.84                           0.540347808235261 13.7828979675525 0.840853912093451 -76.1666160472893 0.840853912093451 -76.1666160472893 0.54034780823526 13.7828979675525 
! Gamma         0                0                0                0                
! Port Impedance         50               0                50               0                
3.86                           0.541094733730913 13.4572369909957 0.840374210230813 -76.4925794034415 0.840374210230813 -76.4925794034415 0.541094733730913 13.4572369909957 
! Gamma         0                0                0                0                
! Port Impedance         50               0                50               0                
3.88                           0.541823336734049 13.1319424385175 0.839905380847203 -76.8181758233249 0.839905380847203 -76.8181758233249 0.541823336734049 13.1319424385175 
! Gamma         0                0                0                0                
! Port Impedance         50               0                50               0                
3.9                            0.542533671536963 12.8070056960391 0.839447454502633 -77.1434139449038 0.839447454502634 -77.1434139449038 0.542533671536963 12.8070056960391 
! Gamma         0                0                0                0                
! Port Impedance         50               0                50               0                
3.92                           0.543225791248839 12.4824181399172 0.839000460789474 -77.4683024155105 0.839000460789475 -77.4683024155105 0.543225791248839 12.4824181399172 
! Gamma         0                0                0                0                
! Port Impedance         50               0                50               0                
3.94                           0.543899747785472 12.1581711374158 0.838564428349111 -77.7928498913824 0.838564428349111 -77.7928498913824 0.543899747785472 12.1581711374158 
! Gamma         0                0                0                0                
! Port Impedance         50               0                50               0                
3.96                           0.544555591859383 11.8342560471603 0.838139384888209 -78.1170650372166 0.838139384888209 -78.1170650372166 0.544555591859382 11.8342560471603 
! Gamma         0                0                0                0                
! Port Impedance         50               0                50               0                
3.98                           0.545193372970329 11.5106642195744 0.837725357194571 -78.4409565257418 0.837725357194571 -78.4409565257418 0.545193372970329 11.5106642195744 
! Gamma         0                0                0                0                
! Port Impedance         50               0                50               0                
4                              0.545813139396182 11.1873869972997 0.837322371152606 -78.7645330373066 0.837322371152606 -78.7645330373066 0.545813139396182 11.1873869972997 
! Gamma         0                0                0                0                
! Port Impedance         50               0                50               0                
4.02                           0.546414938184172 10.8644157155997 0.836930451758382 -79.0878032594847 0.836930451758382 -79.0878032594847 0.546414938184172 10.8644157155998 
! Gamma         0                0                0                0                
! Port Impedance         50               0                50               0                
4.04                           0.546998815142491 10.5417417027473 0.836549623134283 -79.4107758866948 0.836549623134282 -79.4107758866948 0.54699881514249 10.5417417027473 
! Gamma         0                0                0                0                
! Port Impedance         50               0                50               0                
4.06                           0.547564814832239 10.2193562803969 0.836179908543252 -79.7334596198369 0.836179908543252 -79.7334596198369 0.547564814832239 10.2193562803969 
! Gamma         0                0                0                0                
! Port Impedance         50               0                50               0                
4.08                           0.548112980559709 9.89725076394261 0.835821330402642 -80.0558631659424 0.835821330402642 -80.0558631659424 0.548112980559709 9.89725076394261 
! Gamma         0                0                0                0                
! Port Impedance         50               0                50               0                
4.1                            0.548643354368995 9.57541646286044 0.835473910297638 -80.3779952378387 0.835473910297638 -80.3779952378387 0.548643354368995 9.57541646286045 
! Gamma         0                0                0                0                
! Port Impedance         50               0                50               0                
4.12                           0.549155977034923 9.25384468103792 0.835137668994288 -80.6998645538289 0.835137668994288 -80.6998645538289 0.549155977034923 9.25384468103792 
! Gamma         0                0                0                0                
! Port Impedance         50               0                50               0                
4.14                           0.549650888056288 8.9325267170896  0.834812626452116 -81.0214798373825 0.834812626452116 -81.0214798373825 0.549650888056288 8.93252671708961 
! Gamma         0                0                0                0                
! Port Impedance         50               0                50               0                
4.16                           0.550128125649399 8.61145386465957 0.834498801836321 -81.3428498168415 0.834498801836321 -81.3428498168415 0.550128125649399 8.61145386465958 
! Gamma         0                0                0                0                
! Port Impedance         50               0                50               0                
4.18                           0.550587726741908 8.29061741271156 0.834196213529572 -81.6639832251372 0.834196213529573 -81.6639832251372 0.550587726741908 8.29061741271156 
! Gamma         0                0                0                0                
! Port Impedance         50               0                50               0                
4.2                            0.551029726966932 7.97000864580689 0.833904879143386 -81.9848887995199 0.833904879143386 -81.9848887995199 0.551029726966932 7.97000864580689 
! Gamma         0                0                0                0                
! Port Impedance         50               0                50               0                
4.22                           0.551454160657453 7.64961884437091 0.833624815529096 -82.3055752812999 0.833624815529096 -82.3055752812999 0.551454160657453 7.64961884437092 
! Gamma         0                0                0                0                
! Port Impedance         50               0                50               0                
4.24                           0.551861060840986 7.32943928494809 0.833356038788399 -82.6260514155994 0.833356038788399 -82.6260514155994 0.551861060840985 7.32943928494809 
! Gamma         0                0                0                0                
! Port Impedance         50               0                50               0                
4.26                           0.552250459234514 7.00946124044648 0.833098564283505 -82.9463259511157 0.833098564283505 -82.9463259511157 0.552250459234514 7.00946124044648 
! Gamma         0                0                0                0                
! Port Impedance         50               0                50               0                
4.28                           0.552622386239679 6.68967598037208 0.832852406646855 -83.2664076398936 0.832852406646855 -83.2664076398936 0.552622386239678 6.68967598037208 
! Gamma         0                0                0                0                
! Port Impedance         50               0                50               0                
4.3                            0.552976870938226 6.37007477105307 0.832617579790435 -83.5863052371086 0.832617579790435 -83.5863052371086 0.552976870938226 6.37007477105308 
! Gamma         0                0                0                0                
! Port Impedance         50               0                50               0                
4.32                           0.553313941087691 6.050648875855   0.832394096914676 -83.9060275008586 0.832394096914676 -83.9060275008586 0.553313941087691 6.050648875855   
! Gamma         0                0                0                0                
! Port Impedance         50               0                50               0                
4.34                           0.553633623117333 5.73138955538683 0.832181970516936 -84.2255831919651 0.832181970516936 -84.2255831919651 0.553633623117333 5.73138955538683 
! Gamma         0                0                0                0                
! Port Impedance         50               0                50               0                
4.36                           0.553935942124289 5.41228806769873 0.831981212399565 -84.5449810737821 0.831981212399564 -84.5449810737821 0.55393594212429 5.41228806769873 
! Gamma         0                0                0                0                
! Port Impedance         50               0                50               0                
4.38                           0.554220921869972 5.09333566847163 0.831791833677561 -84.864229912014 0.831791833677561 -84.864229912014 0.554220921869972 5.09333566847163 
! Gamma         0                0                0                0                
! Port Impedance         50               0                50               0                
4.4                            0.554488584776681 4.77452361119932 0.831613844785812 -85.1833384745401 0.831613844785812 -85.1833384745401 0.554488584776681 4.77452361119932 
! Gamma         0                0                0                0                
! Port Impedance         50               0                50               0                
4.42                           0.55473895192444 4.45584314736328 0.831447255485915 -85.5023155312469 0.831447255485915 -85.5023155312469 0.55473895192444 4.45584314736328 
! Gamma         0                0                0                0                
! Port Impedance         50               0                50               0                
4.44                           0.554972043048043 4.13728552660108 0.831292074872587 -85.8211698538664 0.831292074872587 -85.8211698538664 0.554972043048043 4.13728552660108 
! Gamma         0                0                0                0                
! Port Impedance         50               0                50               0                
4.46                           0.555187876534316 3.81884199686804 0.831148311379659 -86.1399102158219 0.831148311379659 -86.1399102158219 0.555187876534315 3.81884199686804 
! Gamma         0                0                0                0                
! Port Impedance         50               0                50               0                
4.48                           0.55538646941958 3.50050380459352 0.831015972785654 -86.4585453920781 0.831015972785654 -86.4585453920781 0.55538646941958 3.50050380459352 
! Gamma         0                0                0                0                
! Port Impedance         50               0                50               0                
4.5                            0.555567837387326 3.18226219483143 0.830895066218956 -86.7770841589976 0.830895066218956 -86.7770841589976 0.555567837387326 3.18226219483143 
! Gamma         0                0                0                0                
! Port Impedance         50               0                50               0                
4.52                           0.555731994766078 2.86410841140599 0.830785598162554 -87.0955352942025 0.830785598162554 -87.0955352942025 0.555731994766077 2.86410841140598 
! Gamma         0                0                0                0                
! Port Impedance         50               0                50               0                
4.54                           0.555878954527462 2.54603369705274 0.83068757445838 -87.4139075764397 0.830687574458379 -87.4139075764397 0.555878954527463 2.54603369705274 
! Gamma         0                0                0                0                
! Port Impedance         50               0                50               0                
4.56                           0.556008728284469 2.22802929355562 0.830601000311228 -87.7322097854515 0.830601000311228 -87.7322097854515 0.556008728284469 2.22802929355562 
! Gamma         0                0                0                0                
! Port Impedance         50               0                50               0                
4.58                           0.556121326289898 1.91008644188019 0.830525880292262 -88.0504507018487 0.830525880292262 -88.0504507018487 0.556121326289898 1.91008644188019 
! Gamma         0                0                0                0                
! Port Impedance         50               0                50               0                
4.6                            0.556216757435004 1.59219638230362 0.830462218342106 -88.3686391069882 0.830462218342106 -88.3686391069882 0.556216757435004 1.59219638230362 
! Gamma         0                0                0                0                
! Port Impedance         50               0                50               0                
4.62                           0.556295029248321 1.27435035454182 0.830410017773517 -88.6867837828524 0.830410017773518 -88.6867837828524 0.556295029248321 1.27435035454182 
! Gamma         0                0                0                0                
! Port Impedance         50               0                50               0                
4.64                           0.556356147894679 0.956539597874137 0.830369281273654 -89.0048935119319 0.830369281273654 -89.0048935119319 0.556356147894679 0.956539597874138 
! Gamma         0                0                0                0                
! Port Impedance         50               0                50               0                
4.66                           0.556400118174397 0.638755351266109 0.83034001090592 -89.32297707711  0.83034001090592 -89.32297707711  0.556400118174397 0.638755351266108 
! Gamma         0                0                0                0                
! Port Impedance         50               0                50               0                
4.68                           0.556426943522664 0.320988853490404 0.830322208111397 -89.6410432615486 0.830322208111397 -89.6410432615486 0.556426943522664 0.320988853490404 
! Gamma         0                0                0                0                
! Port Impedance         50               0                50               0                
4.7                            0.556436626009102 0.00323134324692278 0.830315873709868 -89.9591008485755 0.830315873709868 -89.9591008485755 0.556436626009102 0.00323134324692278 
! Gamma         0                0                0                0                
! Port Impedance         50               0                50               0                
4.72                           0.556429166337507 -0.314525940718147 0.830321007900416 -90.2771586215727 0.830321007900416 -90.2771586215727 0.556429166337507 -0.314525940718146 
! Gamma         0                0                0                0                
! Port Impedance         50               0                50               0                
4.74                           0.556404563845772 -0.632291759493372 0.83033761026162 -90.5952253638646 0.83033761026162 -90.5952253638646 0.556404563845772 -0.632291759493372 
! Gamma         0                0                0                0                
! Port Impedance         50               0                50               0                
4.76                           0.556362816505994 -0.950074873883234 0.830365679751329 -90.9133098586067 0.830365679751329 -90.9133098586067 0.556362816505994 -0.950074873883234 
! Gamma         0                0                0                0                
! Port Impedance         50               0                50               0                
4.78                           0.556303920924758 -1.26788404428856 0.830405214706023 -91.2314208886737 0.830405214706023 -91.2314208886737 0.556303920924758 -1.26788404428856 
! Gamma         0                0                0                0                
! Port Impedance         50               0                50               0                
4.8                            0.556227872343599 -1.58572803058619 0.830456212839762 -91.5495672365462 0.830456212839762 -91.5495672365462 0.556227872343599 -1.58572803058618 
! Gamma         0                0                0                0                
! Port Impedance         50               0                50               0                
4.82                           0.556134664639659 -1.90361559200717 0.830518671242719 -91.8677576841972 0.830518671242719 -91.8677576841972 0.556134664639659 -1.90361559200717 
! Gamma         0                0                0                0                
! Port Impedance         50               0                50               0                
4.84                           0.556024290326509 -2.22155548701325 0.830592586379299 -92.1860010129759 0.830592586379299 -92.1860010129759 0.55602429032651 -2.22155548701325 
! Gamma         0                0                0                0                
! Port Impedance         50               0                50               0                
4.86                           0.555896740555172 -2.53955647317107 0.830677954085844 -92.5043060034898 0.830677954085844 -92.5043060034898 0.555896740555172 -2.53955647317107 
! Gamma         0                0                0                0                
! Port Impedance         50               0                50               0                
4.88                           0.555752005115314 -2.85762730702385 0.830774769567923 -92.8226814354845 0.830774769567923 -92.8226814354845 0.555752005115314 -2.85762730702385 
! Gamma         0                0                0                0                
! Port Impedance         50               0                50               0                
4.9                            0.555590072436644 -3.17577674395996 0.830883027397209 -93.1411360877203 0.830883027397209 -93.1411360877203 0.555590072436644 -3.17577674395995 
! Gamma         0                0                0                0                
! Port Impedance         50               0                50               0                
4.92                           0.555410929590481 -3.49401353807789 0.83100272150794 -93.459678737845 0.83100272150794 -93.459678737845 0.555410929590481 -3.49401353807789 
! Gamma         0                0                0                0                
! Port Impedance         50               0                50               0                
4.94                           0.555214562291527 -3.81234644204767 0.831133845192964 -93.778318162264 0.831133845192964 -93.778318162264 0.555214562291527 -3.81234644204767 
! Gamma         0                0                0                0                
! Port Impedance         50               0                50               0                
4.96                           0.555000954899833 -4.13078420696753 0.831276391099378 -94.0970631360052 0.831276391099378 -94.0970631360052 0.555000954899833 -4.13078420696753 
! Gamma         0                0                0                0                
! Port Impedance         50               0                50               0                
4.98                           0.55477009042295 -4.4493355822161 0.831430351223737 -94.4159224325798 0.831430351223736 -94.4159224325798 0.554770090422951 -4.4493355822161 
! Gamma         0                0                0                0                
! Port Impedance         50               0                50               0                
5                              0.554521950518299 -4.76800931529929 0.831595716906863 -94.7349048238378 0.831595716906863 -94.7349048238378 0.554521950518299 -4.76800931529929 
! Gamma         0                0                0                0                
! Port Impedance         50               0                50               0                
5.02                           0.554256515495727 -5.08681415169166 0.831772478828237 -95.0540190798182 0.831772478828237 -95.0540190798182 0.554256515495727 -5.08681415169166 
! Gamma         0                0                0                0                
! Port Impedance         50               0                50               0                
5.04                           0.55397376432028 -5.4057588346715 0.831960626999965 -95.373273968593 0.831960626999965 -95.373273968593 0.55397376432028 -5.4057588346715 
! Gamma         0                0                0                0                
! Port Impedance         50               0                50               0                
5.06                           0.553673674615183 -5.7248521051498 0.832160150760343 -95.6926782561057 0.832160150760343 -95.6926782561057 0.553673674615183 -5.7248521051498 
! Gamma         0                0                0                0                
! Port Impedance         50               0                50               0                
5.08                           0.553356222665038 -6.04410270149192 0.832371038767001 -96.0122407060017 0.832371038767001 -96.0122407060017 0.553356222665038 -6.04410270149192 
! Gamma         0                0                0                0                
! Port Impedance         50               0                50               0                
5.1                            0.553021383419238 -6.36351935933208 0.832593278989634 -96.3319700794526 0.832593278989634 -96.3319700794526 0.553021383419238 -6.36351935933208 
! Gamma         0                0                0                0                
! Port Impedance         50               0                50               0                
5.12                           0.552669130495607 -6.68311081138006 0.832826858702316 -96.6518751349728 0.832826858702317 -96.6518751349728 0.552669130495606 -6.68311081138006 
! Gamma         0                0                0                0                
! Port Impedance         50               0                50               0                
5.14                           0.552299436184266 -7.00288578721964 0.833071764475404 -96.9719646282272 0.833071764475404 -96.9719646282272 0.552299436184266 -7.00288578721964 
! Gamma         0                0                0                0                
! Port Impedance         50               0                50               0                
5.16                           0.551912271451744 -7.32285301309821 0.833327982167022 -97.2922473118315 0.833327982167022 -97.2922473118315 0.551912271451744 -7.32285301309821 
! Gamma         0                0                0                0                
! Port Impedance         50               0                50               0                
5.18                           0.551507605945314 -7.64302121170753 0.833595496914136 -97.6127319351428 0.833595496914136 -97.6127319351428 0.551507605945314 -7.64302121170752 
! Gamma         0                0                0                0                
! Port Impedance         50               0                50               0                
5.2                            0.551085407997584 -7.96339910195452 0.833874293123215 -97.9334272440412 0.833874293123215 -97.9334272440412 0.551085407997584 -7.96339910195452 
! Gamma         0                0                0                0                
! Port Impedance         50               0                50               0                
5.22                           0.550645644631339 -8.2839953987224 0.834164354460472 -98.2543419807011 0.834164354460472 -98.2543419807012 0.550645644631339 -8.2839953987224 
! Gamma         0                0                0                0                
! Port Impedance         50               0                50               0                
5.24                           0.550188281564641 -8.60481881262104 0.834465663841698 -98.5754848833535 0.834465663841698 -98.5754848833535 0.550188281564641 -8.60481881262104 
! Gamma         0                0                0                0                
! Port Impedance         50               0                50               0                
5.26                           0.54971328321619 -8.92587804972648 0.834778203421682 -98.8968646860358 0.834778203421682 -98.8968646860358 0.549713283216189 -8.92587804972648 
! Gamma         0                0                0                0                
! Port Impedance         50               0                50               0                
5.28                           0.549220612710959 -9.24718181130909 0.835101954583215 -99.2184901183317 0.835101954583216 -99.2184901183317 0.549220612710959 -9.24718181130909 
! Gamma         0                0                0                0                
! Port Impedance         50               0                50               0                
5.3                            0.548710231886115 -9.56873879354972 0.835436897925686 -99.5403699050992 0.835436897925686 -99.5403699050992 0.548710231886116 -9.56873879354972 
! Gamma         0                0                0                0                
! Port Impedance         50               0                50               0                
5.32                           0.548182101297214 -9.89055768724362 0.835783013253261 -99.8625127661866 0.835783013253261 -99.8625127661866 0.548182101297214 -9.89055768724361 
! Gamma         0                0                0                0                
! Port Impedance         50               0                50               0                
5.34                           0.547636180224694 -10.2126471774914 0.836140279562658 -100.184927416135 0.836140279562658 -100.184927416135 0.547636180224694 -10.2126471774914 
! Gamma         0                0                0                0                
! Port Impedance         50               0                50               0                
5.36                           0.547072426680681 -10.5350159433771 0.836508675030507 -100.507622563871 0.836508675030507 -100.507622563871 0.547072426680681 -10.5350159433771 
! Gamma         0                0                0                0                
! Port Impedance         50               0                50               0                
5.38                           0.546490797416087 -10.857672657632 0.836888177000299 -100.830606912381 0.836888177000299 -100.830606912381 0.546490797416087 -10.857672657632 
! Gamma         0                0                0                0                
! Port Impedance         50               0                50               0                
5.4                            0.545891247928044 -11.1806259862842 0.837278761968933 -101.153889158374 0.837278761968933 -101.153889158374 0.545891247928044 -11.1806259862843 
! Gamma         0                0                0                0                
! Port Impedance         50               0                50               0                
5.42                           0.545273732467654 -11.5038845882945 0.837680405572848 -101.477477991934 0.837680405572848 -101.477477991934 0.545273732467654 -11.5038845882945 
! Gamma         0                0                0                0                
! Port Impedance         50               0                50               0                
5.44                           0.544638204048082 -11.8274571151754 0.838093082573755 -101.80138209615 0.838093082573755 -101.80138209615 0.544638204048082 -11.8274571151754 
! Gamma         0                0                0                0                
! Port Impedance         50               0                50               0                
5.46                           0.543984614452992 -12.1513522105958 0.838516766843957 -102.125610146735 0.838516766843957 -102.125610146735 0.543984614452993 -12.1513522105958 
! Gamma         0                0                0                0                
! Port Impedance         50               0                50               0                
5.48                           0.543312914245346 -12.4755785099691 0.838951431351274 -102.450170811633 0.838951431351274 -102.450170811633 0.543312914245347 -12.4755785099691 
! Gamma         0                0                0                0                
! Port Impedance         50               0                50               0                
5.5                            0.542623052776559 -12.8001446400245 0.839397048143559 -102.775072750598 0.839397048143559 -102.775072750598 0.542623052776559 -12.8001446400245 
! Gamma         0                0                0                0                
! Port Impedance         50               0                50               0                
5.52                           0.541914978196035 -13.1250592183611 0.839853588332813 -103.10032461477 0.839853588332813 -103.10032461477 0.541914978196035 -13.1250592183611 
! Gamma         0                0                0                0                
! Port Impedance         50               0                50               0                
5.54                           0.541188637461093 -13.4503308529847 0.84032102207891 -103.425935046225 0.84032102207891 -103.425935046225 0.541188637461093 -13.4503308529847 
! Gamma         0                0                0                0                
! Port Impedance         50               0                50               0                
5.56                           0.540443976347287 -13.7759681418264 0.840799318572914 -103.751912677511 0.840799318572914 -103.751912677511 0.540443976347287 -13.7759681418264 
! Gamma         0                0                0                0                
! Port Impedance         50               0                50               0                
5.58                           0.539680939459133 -14.1019796722418 0.841288446020009 -104.078266131161 0.84128844602001 -104.078266131161 0.539680939459134 -14.1019796722418 
! Gamma         0                0                0                0                
! Port Impedance         50               0                50               0                
5.6                            0.538899470241261 -14.4283740204923 0.841788371622037 -104.405004019197 0.841788371622037 -104.405004019197 0.538899470241262 -14.4283740204923 
! Gamma         0                0                0                0                
! Port Impedance         50               0                50               0                
5.62                           0.538099510989992 -14.7551597512058 0.842299061559642 -104.732134942602 0.842299061559642 -104.732134942602 0.538099510989992 -14.7551597512058 
! Gamma         0                0                0                0                
! Port Impedance         50               0                50               0                
5.64                           0.537281002865363 -15.0823454168174 0.842820480974032 -105.059667490786 0.842820480974032 -105.059667490786 0.537281002865364 -15.0823454168174 
! Gamma         0                0                0                0                
! Port Impedance         50               0                50               0                
5.66                           0.536443885903611 -15.4099395569897 0.843352593948356 -105.387610241018 0.843352593948356 -105.387610241018 0.536443885903611 -15.4099395569897 
! Gamma         0                0                0                0                
! Port Impedance         50               0                50               0                
5.68                           0.535588099030113 -15.7379506980114 0.843895363488698 -105.715971757851 0.843895363488698 -105.715971757851 0.535588099030113 -15.7379506980114 
! Gamma         0                0                0                0                
! Port Impedance         50               0                50               0                
5.7                            0.534713580072818 -16.0663873521749 0.844448751504701 -106.044760592512 0.8444487515047  -106.044760592512 0.534713580072818 -16.0663873521749 
! Gamma         0                0                0                0                
! Port Impedance         50               0                50               0                
5.72                           0.533820265776169 -16.3952580171309 0.84501271878981 -106.373985282285 0.845012718789811 -106.373985282285 0.533820265776169 -16.3952580171309 
! Gamma         0                0                0                0                
! Port Impedance         50               0                50               0                
5.74                           0.532908091815528 -16.7245711752206 0.845587225001154 -106.703654349858 0.845587225001154 -106.703654349858 0.532908091815528 -16.7245711752206 
! Gamma         0                0                0                0                
! Port Impedance         50               0                50               0                
5.76                           0.531976992812123 -17.0543352927849 0.846172228639056 -107.033776302659 0.846172228639056 -107.033776302659 0.531976992812124 -17.0543352927849 
! Gamma         0                0                0                0                
! Port Impedance         50               0                50               0                
5.78                           0.531026902348535 -17.384558819449 0.846767687026187 -107.364359632158 0.846767687026187 -107.364359632158 0.531026902348535 -17.384558819449 
! Gamma         0                0                0                0                
! Port Impedance         50               0                50               0                
5.8                            0.530057752984716 -17.7152501873832 0.847373556286367 -107.695412813157 0.847373556286367 -107.695412813157 0.530057752984716 -17.7152501873832 
! Gamma         0                0                0                0                
! Port Impedance         50               0                50               0                
5.82                           0.529069476274591 -18.0464178105392 0.847989791323013 -108.026944303044 0.847989791323012 -108.026944303044 0.529069476274591 -18.0464178105392 
! Gamma         0                0                0                0                
! Port Impedance         50               0                50               0                
5.84                           0.528062002783215 -18.3780700838601 0.848616345797241 -108.358962541034 0.848616345797241 -108.358962541034 0.528062002783215 -18.37807008386  
! Gamma         0                0                0                0                
! Port Impedance         50               0                50               0                
5.86                           0.527035262104534 -18.7102153824648 0.849253172105637 -108.691475947374 0.849253172105636 -108.691475947374 0.527035262104534 -18.7102153824649 
! Gamma         0                0                0                0                
! Port Impedance         50               0                50               0                
5.88                           0.525989182879742 -19.042862060807 0.849900221357688 -109.024492922531 0.849900221357688 -109.024492922531 0.525989182879742 -19.042862060807 
! Gamma         0                0                0                0                
! Port Impedance         50               0                50               0                
5.9                            0.524923692816266 -19.376018451805 0.850557443352894 -109.358021846347 0.850557443352894 -109.358021846347 0.524923692816266 -19.376018451805 
! Gamma         0                0                0                0                
! Port Impedance         50               0                50               0                
5.92                           0.523838718707382 -19.709692865946 0.85122478655756 -109.692071077175 0.85122478655756 -109.692071077175 0.523838718707382 -19.709692865946 
! Gamma         0                0                0                0                
! Port Impedance         50               0                50               0                
5.94                           0.522734186452479 -20.0438935903618 0.851902198081273 -110.026648950979 0.851902198081274 -110.026648950979 0.522734186452479 -20.0438935903618 
! Gamma         0                0                0                0                
! Port Impedance         50               0                50               0                
5.96                           0.521610021077997 -20.3786288878751 0.852589623653085 -110.361763780415 0.852589623653085 -110.361763780415 0.521610021077997 -20.3786288878751 
! Gamma         0                0                0                0                
! Port Impedance         50               0                50               0                
5.98                           0.520466146759035 -20.7139069960178 0.853287007597391 -110.697423853877 0.853287007597391 -110.697423853877 0.520466146759035 -20.7139069960178 
! Gamma         0                0                0                0                
! Port Impedance         50               0                50               0                
6                              0.519302486841671 -21.0497361260192 0.853994292809536 -111.033637434518 0.853994292809536 -111.033637434518 0.519302486841671 -21.0497361260192 
! Gamma         0                0                0                0                
! Port Impedance         50               0                50               0                
6.02                           0.518118963865981 -21.3861244617638 0.854711420731129 -111.370412759244 0.854711420731129 -111.370412759244 0.518118963865982 -21.3861244617638 
! Gamma         0                0                0                0                
! Port Impedance         50               0                50               0                
6.04                           0.5169154995898  -21.7230801587186 0.855438331325104 -111.70775803767 0.855438331325104 -111.70775803767 0.5169154995898  -21.7230801587186 
! Gamma         0                0                0                0                
! Port Impedance         50               0                50               0                
6.06                           0.515692015013218 -22.0606113428298 0.856174963050514 -112.045681451057 0.856174963050515 -112.045681451057 0.515692015013217 -22.0606113428298 
! Gamma         0                0                0                0                
! Port Impedance         50               0                50               0                
6.08                           0.514448430403849 -22.3987261093865 0.856921252837095 -112.384191151213 0.856921252837095 -112.384191151213 0.514448430403849 -22.3987261093865 
! Gamma         0                0                0                0                
! Port Impedance         50               0                50               0                
6.1                            0.513184665322872 -22.7374325218534 0.857677136059574 -112.723295259359 0.857677136059574 -112.723295259359 0.513184665322872 -22.7374325218534 
! Gamma         0                0                0                0                
! Port Impedance         50               0                50               0                
6.12                           0.511900638651866 -23.07673861067  0.858442546511778 -113.063001864972 0.858442546511778 -113.063001864972 0.511900638651866 -23.07673861067  
! Gamma         0                0                0                0                
! Port Impedance         50               0                50               0                
6.14                           0.510596268620462 -23.4166523720171 0.859217416380516 -113.403319024589 0.859217416380516 -113.403319024589 0.510596268620462 -23.4166523720171 
! Gamma         0                0                0                0                
! Port Impedance         50               0                50               0                
6.16                           0.509271472834822 -23.7571817665487 0.860001676219274 -113.744254760587 0.860001676219274 -113.744254760587 0.509271472834822 -23.7571817665487 
! Gamma         0                0                0                0                
! Port Impedance         50               0                50               0                
6.18                           0.50792616830696 -24.0983347180907 0.860795254921721 -114.085817059919 0.860795254921721 -114.085817059919 0.50792616830696 -24.0983347180907 
! Gamma         0                0                0                0                
! Port Impedance         50               0                50               0                
6.2                            0.50656027148493 -24.440119112304 0.861598079695053 -114.428013872825 0.861598079695053 -114.428013872825 0.50656027148493 -24.440119112304 
! Gamma         0                0                0                0                
! Port Impedance         50               0                50               0                
6.22                           0.505173698283886 -24.7825427953128 0.862410076033176 -114.770853111511 0.862410076033176 -114.770853111511 0.505173698283886 -24.7825427953128 
! Gamma         0                0                0                0                
! Port Impedance         50               0                50               0                
6.24                           0.503766364118046 -25.1256135722971 0.863231167689757 -115.114342648785 0.863231167689757 -115.114342648785 0.503766364118046 -25.1256135722971 
! Gamma         0                0                0                0                
! Port Impedance         50               0                50               0                
6.26                           0.502338183933558 -25.469339206049 0.864061276651151 -115.458490316668 0.864061276651151 -115.458490316668 0.502338183933558 -25.469339206049 
! Gamma         0                0                0                0                
! Port Impedance         50               0                50               0                
6.28                           0.500889072242304 -25.8137274154922 0.864900323109217 -115.803303904965 0.864900323109217 -115.803303904965 0.500889072242304 -25.8137274154922 
! Gamma         0                0                0                0                
! Port Impedance         50               0                50               0                
6.3                            0.49941894315664 -26.1587858741649 0.865748225434058 -116.148791159801 0.865748225434058 -116.148791159801 0.49941894315664 -26.1587858741649 
! Gamma         0                0                0                0                
! Port Impedance         50               0                50               0                
6.32                           0.497927710425105 -26.5045222086644 0.866604900146684 -116.494959782125 0.866604900146684 -116.494959782125 0.497927710425105 -26.5045222086644 
! Gamma         0                0                0                0                
! Port Impedance         50               0                50               0                
6.34                           0.496415287469101 -26.8509439970545 0.867470261891626 -116.841817426177 0.867470261891626 -116.841817426177 0.496415287469101 -26.8509439970545 
! Gamma         0                0                0                0                
! Port Impedance         50               0                50               0                
6.36                           0.49488158742057 -27.1980587672337 0.868344223409523 -117.189371697914 0.868344223409523 -117.189371697914 0.49488158742057 -27.1980587672337 
! Gamma         0                0                0                0                
! Port Impedance         50               0                50               0                
6.38                           0.493326523160678 -27.5458739952656 0.869226695509693 -117.537630153407 0.869226695509692 -117.537630153407 0.493326523160678 -27.5458739952656 
! Gamma         0                0                0                0                
! Port Impedance         50               0                50               0                
6.4                            0.491750007359529 -27.8943971036687 0.870117587042725 -117.886600297197 0.870117587042725 -117.886600297197 0.491750007359529 -27.8943971036686 
! Gamma         0                0                0                0                
! Port Impedance         50               0                50               0                
6.42                           0.49015195251691 -28.2436354596681 0.8710168048731  -118.236289580614 0.8710168048731  -118.236289580614 0.490151952516911 -28.2436354596681 
! Gamma         0                0                0                0                
! Port Impedance         50               0                50               0                
6.44                           0.4885322710041  -28.5935963734061 0.871924253851868 -118.586705400061 0.871924253851868 -118.586705400061 0.4885322710041  -28.5935963734061 
! Gamma         0                0                0                0                
! Port Impedance         50               0                50               0                
6.46                           0.486890875106744 -28.9442870961127 0.872839836789407 -118.937855095258 0.872839836789407 -118.937855095258 0.486890875106744 -28.9442870961127 
! Gamma         0                0                0                0                
! Port Impedance         50               0                50               0                
6.48                           0.485227677068808 -29.2957148182361 0.873763454428289 -119.28974594745 0.873763454428289 -119.28974594745 0.485227677068808 -29.295714818236 
! Gamma         0                0                0                0                
! Port Impedance         50               0                50               0                
6.5                            0.483542589137646 -29.6478866675306 0.874695005416278 -119.642385177578 0.874695005416278 -119.642385177578 0.483542589137646 -29.6478866675306 
! Gamma         0                0                0                0                
! Port Impedance         50               0                50               0                
6.52                           0.48183552361016 -30.0008097071052 0.875634386279481 -119.995779944408 0.875634386279481 -119.995779944408 0.48183552361016 -30.0008097071052 
! Gamma         0                0                0                0                
! Port Impedance         50               0                50               0                
6.54                           0.480106392880099 -30.3544909334288 0.876581491395687 -120.349937342626 0.876581491395688 -120.349937342626 0.480106392880099 -30.3544909334288 
! Gamma         0                0                0                0                
! Port Impedance         50               0                50               0                
6.56                           0.478355109486489 -30.7089372742945 0.877536212967923 -120.704864400893 0.877536212967923 -120.704864400893 0.47835510948649 -30.7089372742945 
! Gamma         0                0                0                0                
! Port Impedance         50               0                50               0                
6.58                           0.476581586163215 -31.0641555867408 0.87849844099824 -121.060568079865 0.87849844099824 -121.060568079865 0.476581586163216 -31.0641555867408 
! Gamma         0                0                0                0                
! Port Impedance         50               0                50               0                
6.6                            0.474785735889761 -31.4201526549317 0.879468063261786 -121.417055270164 0.879468063261786 -121.417055270164 0.474785735889761 -31.4201526549317 
! Gamma         0                0                0                0                
! Port Impedance         50               0                50               0                
6.62                           0.472967471943125 -31.7769351879926 0.880444965281169 -121.774332790327 0.880444965281169 -121.774332790327 0.472967471943125 -31.7769351879926 
! Gamma         0                0                0                0                
! Port Impedance         50               0                50               0                
6.64                           0.471126707950914 -32.1345098178042 0.881429030301162 -122.132407384699 0.881429030301162 -122.132407384699 0.471126707950913 -32.1345098178042 
! Gamma         0                0                0                0                
! Port Impedance         50               0                50               0                
6.66                           0.469263357945631 -32.4928830967534 0.882420139263776 -122.491285721305 0.882420139263776 -122.491285721305 0.469263357945631 -32.4928830967534 
! Gamma         0                0                0                0                
! Port Impedance         50               0                50               0                
6.68                           0.467377336420162 -32.8520614954404 0.883418170783725 -122.850974389667 0.883418170783726 -122.850974389667 0.467377336420162 -32.8520614954404 
! Gamma         0                0                0                0                
! Port Impedance         50               0                50               0                
6.7                            0.465468558384472 -33.2120514003429 0.88442300112434 -123.211479898596 0.884423001124339 -123.211479898596 0.465468558384472 -33.2120514003429 
! Gamma         0                0                0                0                
! Port Impedance         50               0                50               0                
6.72                           0.463536939423511 -33.5728591114362 0.885434504173939 -123.572808673939 0.885434504173939 -123.572808673939 0.463536939423511 -33.5728591114362 
! Gamma         0                0                0                0                
! Port Impedance         50               0                50               0                
6.74                           0.461582395756349 -33.9344908397706 0.886452551422719 -123.934967056289 0.886452551422719 -123.934967056289 0.461582395756349 -33.9344908397706 
! Gamma         0                0                0                0                
! Port Impedance         50               0                50               0                
6.76                           0.459604844296531 -34.2969527050043 0.88747701194018 -124.297961298659 0.88747701194018 -124.297961298659 0.459604844296532 -34.2969527050043 
! Gamma         0                0                0                0                
! Port Impedance         50               0                50               0                
6.78                           0.457604202713666 -34.6602507328925 0.888507752353142 -124.661797564118 0.888507752353143 -124.661797564118 0.457604202713665 -34.6602507328925 
! Gamma         0                0                0                0                
! Port Impedance         50               0                50               0                
6.8                            0.455580389496242 -35.0243908527337 0.889544636824378 -125.026481923391 0.889544636824378 -125.026481923391 0.455580389496242 -35.0243908527337 
! Gamma         0                0                0                0                
! Port Impedance         50               0                50               0                
6.82                           0.453533324015692 -35.3893788947706 0.890587527031911 -125.392020352416 0.890587527031911 -125.392020352416 0.453533324015692 -35.3893788947706 
! Gamma         0                0                0                0                
! Port Impedance         50               0                50               0                
6.84                           0.451462926591678 -35.7552205875493 0.891636282149013 -125.758418729878 0.891636282149013 -125.758418729878 0.451462926591678 -35.7552205875493 
! Gamma         0                0                0                0                
! Port Impedance         50               0                50               0                
6.86                           0.449369118558622 -36.1219215552322 0.892690758824956 -126.12568283469 0.892690758824956 -126.12568283469 0.449369118558622 -36.1219215552322 
! Gamma         0                0                0                0                
! Port Impedance         50               0                50               0                
6.88                           0.447251822333472 -36.4894873148696 0.893750811166537 -126.493818343453 0.893750811166537 -126.493818343453 0.447251822333472 -36.4894873148696 
! Gamma         0                0                0                0                
! Port Impedance         50               0                50               0                
6.9                            0.445110961484688 -36.8579232736261 0.894816290720451 -126.862830827875 0.894816290720451 -126.862830827875 0.445110961484688 -36.8579232736261 
! Gamma         0                0                0                0                
! Port Impedance         50               0                50               0                
6.92                           0.442946460802468 -37.2272347259643 0.895887046456528 -127.232725752154 0.895887046456527 -127.232725752154 0.442946460802468 -37.2272347259643 
! Gamma         0                0                0                0                
! Port Impedance         50               0                50               0                
6.94                           0.440758246370185 -37.5974268507846 0.896962924751895 -127.603508470333 0.896962924751895 -127.603508470333 0.440758246370185 -37.5974268507845 
! Gamma         0                0                0                0                
! Port Impedance         50               0                50               0                
6.96                           0.438546245637043 -37.9685047085218 0.89804376937611 -127.975184223617 0.89804376937611 -127.975184223617 0.438546245637043 -37.9685047085218 
! Gamma         0                0                0                0                
! Port Impedance         50               0                50               0                
6.98                           0.436310387491933 -38.3404732381996 0.8991294214773  -128.347758137659 0.8991294214773  -128.347758137659 0.436310387491933 -38.3404732381996 
! Gamma         0                0                0                0                
! Port Impedance         50               0                50               0                
7                              0.434050602338486 -38.7133372544401 0.900219719569371 -128.721235219816 0.900219719569371 -128.721235219816 0.434050602338486 -38.71333725444  
! Gamma         0                0                0                0                
! Port Impedance         50               0                50               0                
7.02                           0.431766822171306 -39.0871014444326 0.901314499520325 -129.095620356379 0.901314499520325 -129.095620356379 0.431766822171306 -39.0871014444326 
! Gamma         0                0                0                0                
! Port Impedance         50               0                50               0                
7.04                           0.429458980653367 -39.4617703648594 0.902413594541731 -129.470918309758 0.902413594541732 -129.470918309758 0.429458980653367 -39.4617703648594 
! Gamma         0                0                0                0                
! Port Impedance         50               0                50               0                
7.06                           0.427127013194566 -39.8373484387781 0.903516835179417 -129.847133715662 0.903516835179416 -129.847133715662 0.427127013194566 -39.8373484387781 
! Gamma         0                0                0                0                
! Port Impedance         50               0                50               0                
7.08                           0.424770857031412 -40.2138399524636 0.904624049305405 -130.224271080227 0.904624049305405 -130.224271080227 0.424770857031412 -40.2138399524635 
! Gamma         0                0                0                0                
! Port Impedance         50               0                50               0                
7.1                            0.422390451307814 -40.5912490522068 0.905735062111172 -130.602334777136 0.905735062111172 -130.602334777136 0.422390451307813 -40.5912490522069 
! Gamma         0                0                0                0                
! Port Impedance         50               0                50               0                
7.12                           0.41998573715698 -40.9695797410734 0.906849696102262 -130.981329044709 0.906849696102262 -130.981329044709 0.41998573715698 -40.9695797410734 
! Gamma         0                0                0                0                
! Port Impedance         50               0                50               0                
7.14                           0.417556657784372 -41.3488358756191 0.907967771094313 -131.361257982959 0.907967771094313 -131.361257982959 0.417556657784372 -41.3488358756191 
! Gamma         0                0                0                0                
! Port Impedance         50               0                50               0                
7.16                           0.415103158551709 -41.7290211625657 0.909089104210556 -131.742125550644 0.909089104210556 -131.742125550644 0.415103158551709 -41.7290211625657 
! Gamma         0                0                0                0                
! Port Impedance         50               0                50               0                
7.18                           0.412625187061975 -42.1101391554358 0.910213509880819 -132.12393556228 0.910213509880819 -132.12393556228 0.412625187061975 -42.1101391554358 
! Gamma         0                0                0                0                
! Port Impedance         50               0                50               0                
7.2                            0.410122693245428 -42.4921932511461 0.911340799842119 -132.506691685149 0.911340799842118 -132.506691685149 0.410122693245428 -42.4921932511461 
! Gamma         0                0                0                0                
! Port Impedance         50               0                50               0                
7.22                           0.407595629446542 -42.8751866865611 0.912470783140859 -132.890397436274 0.912470783140859 -132.890397436274 0.407595629446541 -42.8751866865611 
! Gamma         0                0                0                0                
! Port Impedance         50               0                50               0                
7.24                           0.405043950511875 -43.2591225350064 0.913603266136722 -133.275056179395 0.913603266136722 -133.275056179395 0.405043950511875 -43.2591225350064 
! Gamma         0                0                0                0                
! Port Impedance         50               0                50               0                
7.26                           0.40246761387882 -43.6440037027415 0.914738052508277 -133.660671121913 0.914738052508277 -133.660671121913 0.40246761387882 -43.6440037027415 
! Gamma         0                0                0                0                
! Port Impedance         50               0                50               0                
7.28                           0.399866579665182 -44.0298329253927 0.915874943260384 -134.047245311834 0.915874943260384 -134.047245311834 0.399866579665182 -44.0298329253927 
! Gamma         0                0                0                0                
! Port Impedance         50               0                50               0                
7.3                            0.397240810759567 -44.4166127643462 0.917013736733424 -134.434781634694 0.917013736733424 -134.434781634694 0.397240810759567 -44.4166127643462 
! Gamma         0                0                0                0                
! Port Impedance         50               0                50               0                
7.32                           0.394590272912512 -44.804345603101 0.918154228614434 -134.823282810478 0.918154228614434 -134.823282810477 0.394590272912512 -44.804345603101 
! Gamma         0                0                0                0                
! Port Impedance         50               0                50               0                
7.34                           0.391914934828327 -45.1930336435817 0.91929621195017 -135.212751390532 0.919296211950169 -135.212751390532 0.391914934828327 -45.1930336435816 
! Gamma         0                0                0                0                
! Port Impedance         50               0                50               0                
7.36                           0.389214768257591 -45.5826789024107 0.920439477162175 -135.603189754468 0.920439477162175 -135.603189754468 0.389214768257591 -45.5826789024107 
! Gamma         0                0                0                0                
! Port Impedance         50               0                50               0                
7.38                           0.386489748090246 -45.9732832071406 0.921583812063898 -135.994600107069 0.921583812063898 -135.994600107069 0.386489748090246 -45.9732832071406 
! Gamma         0                0                0                0                
! Port Impedance         50               0                50               0                
7.4                            0.383739852449246 -46.3648481924445 0.922729001879907 -136.386984475187 0.922729001879907 -136.386984475187 0.383739852449247 -46.3648481924445 
! Gamma         0                0                0                0                
! Port Impedance         50               0                50               0                
7.42                           0.380965062784688 -46.7573752962658 0.923874829267251 -136.780344704649 0.923874829267251 -136.780344704649 0.380965062784688 -46.7573752962658 
! Gamma         0                0                0                0                
! Port Impedance         50               0                50               0                
7.44                           0.378165363968377 -47.1508657559253 0.925021074339037 -137.174682457165 0.925021074339037 -137.174682457165 0.378165363968377 -47.1508657559253 
! Gamma         0                0                0                0                
! Port Impedance         50               0                50               0                
7.46                           0.375340744388752 -47.545320604185 0.926167514690243 -137.569999207242 0.926167514690244 -137.569999207242 0.375340744388752 -47.545320604185 
! Gamma         0                0                0                0                
! Port Impedance         50               0                50               0                
7.48                           0.372491196046117 -47.9407406652684 0.927313925425844 -137.966296239102 0.927313925425844 -137.966296239102 0.372491196046117 -47.9407406652684 
! Gamma         0                0                0                0                
! Port Impedance         50               0                50               0                
7.5                            0.369616714648095 -48.3371265508348 0.928460079191273 -138.363574643623 0.928460079191273 -138.363574643623 0.369616714648095 -48.3371265508349 
! Gamma         0                0                0                0                
! Port Impedance         50               0                50               0                
7.52                           0.366717299705243 -48.7344786559071 0.929605746205288 -138.761835315279 0.929605746205288 -138.761835315279 0.366717299705243 -48.7344786559071 
! Gamma         0                0                0                0                
! Port Impedance         50               0                50               0                
7.54                           0.363792954626755 -49.1327971547504 0.930750694295275 -139.161078949112 0.930750694295275 -139.161078949112 0.363792954626755 -49.1327971547504 
! Gamma         0                0                0                0                
! Port Impedance         50               0                50               0                
7.56                           0.360843686816161 -49.5320819966999 0.931894688935029 -139.561306037713 0.931894688935029 -139.561306037713 0.360843686816161 -49.5320819966999 
! Gamma         0                0                0                0                
! Port Impedance         50               0                50               0                
7.58                           0.357869507766965 -49.9323329019353 0.933037493285067 -139.962516868228 0.933037493285067 -139.962516868228 0.357869507766966 -49.9323329019353 
! Gamma         0                0                0                0                
! Port Impedance         50               0                50               0                
7.6                            0.354870433158115 -50.333549357199 0.934178868235507 -140.364711519393 0.934178868235507 -140.364711519393 0.354870433158115 -50.333549357199 
! Gamma         0                0                0                0                
! Port Impedance         50               0                50               0                
7.62                           0.351846482949232 -50.7357306114543 0.935318572451548 -140.767889858597 0.935318572451548 -140.767889858597 0.351846482949232 -50.7357306114543 
! Gamma         0                0                0                0                
! Port Impedance         50               0                50               0                
7.64                           0.348797681475515 -51.1388756714797 0.936456362421594 -141.172051538968 0.936456362421593 -141.172051538968 0.348797681475516 -51.1388756714797 
! Gamma         0                0                0                0                
! Port Impedance         50               0                50               0                
7.66                           0.34572405754222 -51.542983297396 0.937591992508057 -141.577195996511 0.937591992508058 -141.577195996511 0.34572405754222 -51.5429832973961 
! Gamma         0                0                0                0                
! Port Impedance         50               0                50               0                
7.68                           0.342625644518615 -51.9480519981191 0.938725215000875 -141.983322447265 0.938725215000875 -141.983322447265 0.342625644518615 -51.9480519981191 
! Gamma         0                0                0                0                
! Port Impedance         50               0                50               0                
7.7                            0.339502480431336 -52.3540800267341 0.939855780173749 -142.390429884516 0.939855780173749 -142.390429884516 0.339502480431336 -52.3540800267341 
! Gamma         0                0                0                0                
! Port Impedance         50               0                50               0                
7.72                           0.336354608057021 -52.761065375784 0.940983436343175 -142.798517076048 0.940983436343175 -142.798517076048 0.336354608057021 -52.7610653757841 
! Gamma         0                0                0                0                
! Port Impedance         50               0                50               0                
7.74                           0.333182075014139 -53.1690057724647 0.942107929930254 -143.207582561444 0.942107929930254 -143.207582561444 0.333182075014138 -53.1690057724647 
! Gamma         0                0                0                0                
! Port Impedance         50               0                50               0                
7.76                           0.329984933853894 -53.5778986737181 0.943229005525317 -143.617624649438 0.943229005525316 -143.617624649438 0.329984933853894 -53.5778986737181 
! Gamma         0                0                0                0                
! Port Impedance         50               0                50               0                
7.78                           0.326763242150116 -53.9877412612137 0.944346405955394 -144.028641415322 0.944346405955393 -144.028641415322 0.326763242150116 -53.9877412612136 
! Gamma         0                0                0                0                
! Port Impedance         50               0                50               0                
7.8                            0.323517062588013 -54.3985304362078 0.945459872354529 -144.440630698415 0.945459872354528 -144.440630698415 0.323517062588013 -54.3985304362078 
! Gamma         0                0                0                0                
! Port Impedance         50               0                50               0                
7.82                           0.320246463051685 -54.8102628142673 0.946569144236961 -144.85359009959 0.946569144236961 -144.85359009959 0.320246463051685 -54.8102628142674 
! Gamma         0                0                0                0                
! Port Impedance         50               0                50               0                
7.84                           0.316951516710282 -55.2229347198455 0.947673959573184 -145.267516978867 0.947673959573183 -145.267516978867 0.316951516710282 -55.2229347198455 
! Gamma         0                0                0                0                
! Port Impedance         50               0                50               0                
7.86                           0.313632302102694 -55.6365421806913 0.948774054868884 -145.682408453086 0.948774054868883 -145.682408453086 0.313632302102694 -55.6365421806913 
! Gamma         0                0                0                0                
! Port Impedance         50               0                50               0                
7.88                           0.310288903220659 -56.0510809220777 0.949869165246768 -146.098261393634 0.949869165246768 -146.098261393634 0.310288903220659 -56.0510809220778 
! Gamma         0                0                0                0                
! Port Impedance         50               0                50               0                
7.9                            0.30692140959016 -56.4665463608266 0.950959024531273 -146.515072424272 0.950959024531272 -146.515072424272 0.30692140959016 -56.4665463608265 
! Gamma         0                0                0                0                
! Port Impedance         50               0                50               0                
7.92                           0.30352991635101 -56.8829335991083 0.952043365336156 -146.932837919022 0.952043365336156 -146.932837919022 0.30352991635101 -56.8829335991082 
! Gamma         0                0                0                0                
! Port Impedance         50               0                50               0                
7.94                           0.300114524334481 -57.3002374179907 0.953121919154961 -147.351554000157 0.953121919154961 -147.351554000157 0.300114524334481 -57.3002374179907 
! Gamma         0                0                0                0                
! Port Impedance         50               0                50               0                
7.96                           0.296675340138879 -57.7184522707085 0.954194416454335 -147.771216536267 0.954194416454335 -147.771216536267 0.296675340138879 -57.7184522707085 
! Gamma         0                0                0                0                
! Port Impedance         50               0                50               0                
7.98                           0.293212476202925 -58.1375722756207 0.955260586770196 -148.19182114042 0.955260586770196 -148.19182114042 0.293212476202925 -58.1375722756207 
! Gamma         0                0                0                0                
! Port Impedance         50               0                50               0                
8                              0.289726050876818 -58.55759120882  0.956320158806721 -148.613363168426 0.95632015880672 -148.613363168426 0.289726050876818 -58.55759120882  
! Gamma         0                0                0                0                
! Port Impedance         50               0                50               0                
8.02                           0.286216188490871 -58.9785024963517 0.957372860538124 -149.035837717193 0.957372860538125 -149.035837717193 0.286216188490871 -58.9785024963517 
! Gamma         0                0                0                0                
! Port Impedance         50               0                50               0                
8.04                           0.282683019421575 -59.4002992059984 0.958418419313208 -149.459239623192 0.958418419313208 -149.459239623192 0.282683019421575 -59.4002992059984 
! Gamma         0                0                0                0                
! Port Impedance         50               0                50               0                
8.06                           0.279126680154976 -59.8229740385743 0.959456561962639 -149.883563461026 0.959456561962639 -149.883563461026 0.279126680154976 -59.8229740385742 
! Gamma         0                0                0                0                
! Port Impedance         50               0                50               0                
8.08                           0.275547313347241 -60.2465193186734 0.960487014908918 -150.308803542113 0.960487014908918 -150.308803542113 0.275547313347241 -60.2465193186734 
! Gamma         0                0                0                0                
! Port Impedance         50               0                50               0                
8.1                            0.271945067882281 -60.6709269848025 0.961509504278998 -150.734953913484 0.961509504278998 -150.734953913484 0.271945067882281 -60.6709269848025 
! Gamma         0                0                0                0                
! Port Impedance         50               0                50               0                
8.12                           0.268320098926309 -61.0961885788237 0.962523756019497 -151.162008356699 0.962523756019498 -151.162008356699 0.268320098926308 -61.0961885788237 
! Gamma         0                0                0                0                
! Port Impedance         50               0                50               0                
8.14                           0.264672567979207 -61.5222952346208 0.963529496014458 -151.589960386886 0.963529496014458 -151.589960386886 0.264672567979206 -61.5222952346208 
! Gamma         0                0                0                0                
! Port Impedance         50               0                50               0                
8.16                           0.261002642922583 -61.9492376658917 0.964526450205588 -152.018803251904 0.964526450205588 -152.018803251904 0.261002642922583 -61.9492376658917 
! Gamma         0                0                0                0                
! Port Impedance         50               0                50               0                
8.18                           0.257310498064391 -62.3770061529561 0.96551434471492 -152.448529931643 0.96551434471492 -152.448529931643 0.257310498064391 -62.3770061529561 
! Gamma         0                0                0                0                
! Port Impedance         50               0                50               0                
8.2                            0.253596314179986 -62.8055905284526 0.966492905969824 -152.879133137445 0.966492905969824 -152.879133137445 0.253596314179986 -62.8055905284526 
! Gamma         0                0                0                0                
! Port Impedance         50               0                50               0                
8.22                           0.249860278549512 -63.2349801617819 0.967461860830296 -153.310605311672 0.967461860830297 -153.310605311672 0.249860278549512 -63.2349801617819 
! Gamma         0                0                0                0                
! Port Impedance         50               0                50               0                
8.24                           0.24610258499149 -63.665163942131 0.968420936718438 -153.742938627413 0.968420936718438 -153.742938627413 0.24610258499149 -63.6651639421309 
! Gamma         0                0                0                0                
! Port Impedance         50               0                50               0                
8.26                           0.242323433892493 -64.096130259893 0.969369861750049 -154.176124988326 0.969369861750049 -154.176124988326 0.242323433892493 -64.096130259893 
! Gamma         0                0                0                0                
! Port Impedance         50               0                50               0                
8.28                           0.238523032232801 -64.5278669862667 0.970308364868242 -154.610156028634 0.970308364868243 -154.610156028634 0.238523032232801 -64.5278669862667 
! Gamma         0                0                0                0                
! Port Impedance         50               0                50               0                
8.3                            0.23470159360792 -64.9603614507897 0.971236175978982 -155.04502311327 0.971236175978982 -155.04502311327 0.23470159360792 -64.9603614507897 
! Gamma         0                0                0                0                
! Port Impedance         50               0                50               0                
8.32                           0.230859338245856 -65.3936004165234 0.972153026088442 -155.480717338169 0.972153026088442 -155.480717338169 0.230859338245856 -65.3936004165234 
! Gamma         0                0                0                0                
! Port Impedance         50               0                50               0                
8.34                           0.22699649302005 -65.8275700525621 0.973058647442089 -155.917229530721 0.97305864744209 -155.917229530721 0.226996493020051 -65.8275700525621 
! Gamma         0                0                0                0                
! Port Impedance         50               0                50               0                
8.36                           0.223113291457863 -66.2622559034902 0.973952773665373 -156.354550250379 0.973952773665374 -156.354550250379 0.223113291457863 -66.2622559034902 
! Gamma         0                0                0                0                
! Port Impedance         50               0                50               0                
8.38                           0.219209973744515 -66.6976428553533 0.974835139905907 -156.792669789426 0.974835139905907 -156.792669789426 0.219209973744515 -66.6976428553534 
! Gamma         0                0                0                0                
! Port Impedance         50               0                50               0                
8.4                            0.215286786722396 -67.133715097634 0.975705482977018 -157.231578173909 0.975705482977018 -157.231578173909 0.215286786722396 -67.1337150976341 
! Gamma         0                0                0                0                
! Port Impedance         50               0                50               0                
8.42                           0.211343983885654 -67.5704560806464 0.976563541502549 -157.671265164733 0.976563541502549 -157.671265164733 0.211343983885654 -67.5704560806464 
! Gamma         0                0                0                0                
! Port Impedance         50               0                50               0                
8.44                           0.207381825369975 -68.0078484676615 0.977409056062778 -158.111720258927 0.977409056062778 -158.111720258927 0.207381825369975 -68.0078484676615 
! Gamma         0                0                0                0                
! Port Impedance         50               0                50               0                
8.46                           0.203400577937487 -68.4458740809599 0.978241769341308 -158.552932691073 0.978241769341308 -158.552932691073 0.203400577937487 -68.4458740809599 
! Gamma         0                0                0                0                
! Port Impedance         50               0                50               0                
8.48                           0.199400514956711 -68.8845138408685 0.97906142627282 -158.994891434915 0.97906142627282 -158.994891434915 0.199400514956711 -68.8845138408685 
! Gamma         0                0                0                0                
! Port Impedance         50               0                50               0                
8.5                            0.195381916377494 -69.3237476966708 0.979867774191505 -159.437585205134 0.979867774191505 -159.437585205134 0.195381916377494 -69.3237476966709 
! Gamma         0                0                0                0                
! Port Impedance         50               0                50               0                
8.52                           0.19134506870087 -69.7635545480794 0.980660562980063 -159.881002459293 0.980660562980063 -159.881002459293 0.19134506870087 -69.7635545480793 
! Gamma         0                0                0                0                
! Port Impedance         50               0                50               0                
8.54                           0.187290264943788 -70.203912155714 0.981439545219097 -160.325131399972 0.981439545219097 -160.325131399972 0.187290264943788 -70.203912155714 
! Gamma         0                0                0                0                
! Port Impedance         50               0                50               0                
8.56                           0.183217804598685 -70.6447970387365 0.982204476336757 -160.769959977061 0.982204476336757 -160.769959977061 0.183217804598685 -70.6447970387366 
! Gamma         0                0                0                0                
! Port Impedance         50               0                50               0                
8.58                           0.179127993587833 -71.0861843574352 0.982955114758468 -161.215475890245 0.982955114758468 -161.215475890245 0.179127993587833 -71.0861843574352 
! Gamma         0                0                0                0                
! Port Impedance         50               0                50               0                
8.6                            0.175021144212473 -71.5280477781029 0.98369122205659 -161.661666591657 0.98369122205659 -161.661666591657 0.175021144212473 -71.5280477781029 
! Gamma         0                0                0                0                
! Port Impedance         50               0                50               0                
8.62                           0.170897575096688 -71.9703593170284 0.984412563099833 -162.108519288718 0.984412563099833 -162.108519288718 0.170897575096688 -71.9703593170284 
! Gamma         0                0                0                0                
! Port Impedance         50               0                50               0                
8.64                           0.166757611126024 -72.4130891597362 0.985118906202277 -162.556020947145 0.985118906202277 -162.556020947145 0.166757611126024 -72.4130891597362 
! Gamma         0                0                0                0                
! Port Impedance         50               0                50               0                
8.66                           0.162601583380854 -72.8562054507925 0.985810023271802 -163.004158294145 0.985810023271801 -163.004158294145 0.162601583380854 -72.8562054507925 
! Gamma         0                0                0                0                
! Port Impedance         50               0                50               0                
8.68                           0.158429829064512 -73.2996740484555 0.986485689957783 -163.452917821787 0.986485689957783 -163.452917821787 0.158429829064512 -73.2996740484556 
! Gamma         0                0                0                0                
! Port Impedance         50               0                50               0                
8.7                            0.154242691426214 -73.7434582371501 0.987145685797857 -163.902285790546 0.987145685797858 -163.902285790546 0.154242691426214 -73.7434582371501 
! Gamma         0                0                0                0                
! Port Impedance         50               0                50               0                
8.72                           0.150040519678822 -74.187518389104 0.987789794363597 -164.352248233033 0.987789794363597 -164.352248233033 0.150040519678822 -74.187518389104 
! Gamma         0                0                0                0                
! Port Impedance         50               0                50               0                
8.74                           0.145823668911512 -74.6318115644044 0.988417803404901 -164.802790957891 0.988417803404901 -164.802790957891 0.145823668911512 -74.6318115644045 
! Gamma         0                0                0                0                
! Port Impedance         50               0                50               0                
8.76                           0.14159249999742 -75.0762910360574 0.989029504992939 -165.253899553873 0.989029504992939 -165.253899553873 0.14159249999742 -75.0762910360574 
! Gamma         0                0                0                0                
! Port Impedance         50               0                50               0                
8.78                           0.137347379496398 -75.5209057232059 0.989624695661467 -165.70555939409 0.989624695661467 -165.70555939409 0.137347379496398 -75.520905723206 
! Gamma         0                0                0                0                
! Port Impedance         50               0                50               0                
8.8                            0.133088679552991 -75.9655995112008 0.990203176546324 -166.157755640434 0.990203176546324 -166.157755640434 0.133088679552991 -75.9655995112007 
! Gamma         0                0                0                0                
! Port Impedance         50               0                50               0                
8.82                           0.128816777789825 -76.4103104313893 0.990764753522945 -166.610473248169 0.990764753522945 -166.610473248169 0.128816777789825 -76.4103104313894 
! Gamma         0                0                0                0                
! Port Impedance         50               0                50               0                
8.84                           0.124532057196625 -76.8549696657974 0.991309237341701 -167.063696970687 0.9913092373417  -167.063696970687 0.124532057196625 -76.8549696657974 
! Gamma         0                0                0                0                
! Port Impedance         50               0                50               0                
8.86                           0.120234906015127 -77.299500331655 0.991836443760897 -167.517411364433 0.991836443760897 -167.517411364433 0.120234906015127 -77.299500331655 
! Gamma         0                0                0                0                
! Port Impedance         50               0                50               0                
8.88                           0.115925717620249 -77.7438159869787 0.992346193677247 -167.971600793994 0.992346193677247 -167.971600793994 0.115925717620249 -77.7438159869786 
! Gamma         0                0                0                0                
! Port Impedance         50               0                50               0                
8.9                            0.111604890397952 -78.1878187797802 0.992838313253642 -168.426249437344 0.992838313253642 -168.426249437344 0.111604890397952 -78.1878187797801 
! Gamma         0                0                0                0                
! Port Impedance         50               0                50               0                
8.92                           0.107272827620377 -78.6313971379253 0.993312634044057 -168.881341291247 0.993312634044057 -168.881341291247 0.107272827620377 -78.6313971379253 
! Gamma         0                0                0                0                
! Port Impedance         50               0                50               0                
8.94                           0.102929937319002 -79.0744228612016 0.993768993115403 -169.336860176811 0.993768993115402 -169.336860176811 0.102929937319002 -79.0744228612016 
! Gamma         0                0                0                0                
! Port Impedance         50               0                50               0                
8.96                           0.0985766321568275 -79.5167474273518 0.994207233166175 -169.792789745202 0.994207233166175 -169.792789745202 0.0985766321568276 -79.5167474273518 
! Gamma         0                0                0                0                
! Port Impedance         50               0                50               0                
8.98                           0.0942133293009097 -79.9581972529098 0.994627202641718 -170.249113483488 0.994627202641719 -170.249113483488 0.0942133293009097 -79.9581972529101 
! Gamma         0                0                0                0                
! Port Impedance         50               0                50               0                
9                              0.0898404502971012 -80.3985675472268 0.995028755845952 -170.705814720636 0.995028755845952 -170.705814720636 0.0898404502971012 -80.3985675472268 
! Gamma         0                0                0                0                
! Port Impedance         50               0                50               0                
9.02                           0.085458420949534 -80.837614247673 0.995411753049395 -171.162876633644 0.995411753049395 -171.162876633644 0.0854584209495341 -80.8376142476732 
! Gamma         0                0                0                0                
! Port Impedance         50               0                50               0                
9.04                           0.0810676712084807 -81.2750432993946 0.995776060593336 -171.620282253806 0.995776060593337 -171.620282253806 0.0810676712084808 -81.2750432993948 
! Gamma         0                0                0                0                
! Port Impedance         50               0                50               0                
9.06                           0.0766686350718529 -81.7104962010969 0.996121550989998 -172.078014473102 0.996121550989998 -172.078014473102 0.0766686350718529 -81.7104962010967 
! Gamma         0                0                0                0                
! Port Impedance         50               0                50               0                
9.08                           0.0722617505081095 -82.1435302069078 0.996448103018552 -172.536056050715 0.996448103018552 -172.536056050715 0.0722617505081095 -82.1435302069079 
! Gamma         0                0                0                0                
! Port Impedance         50               0                50               0                
9.1                            0.0678474594123815 -82.5735907290422 0.996755601816841 -172.994389619668 0.996755601816841 -172.994389619668 0.0678474594123816 -82.5735907290423 
! Gamma         0                0                0                0                
! Port Impedance         50               0                50               0                
9.12                           0.0634262076141487 -82.9999721062525 0.997043938968677 -173.452997693565 0.997043938968676 -173.452997693565 0.0634262076141487 -82.9999721062525 
! Gamma         0                0                0                0                
! Port Impedance         50               0                50               0                
9.14                           0.0589984449658112 -83.4217605852141 0.997313012586575 -173.91186267345 0.997313012586575 -173.91186267345 0.0589984449658111 -83.4217605852142 
! Gamma         0                0                0                0                
! Port Impedance         50               0                50               0                
9.16                           0.054564625560569 -83.8377493393628 0.997562727389822 -174.370966854761 0.997562727389822 -174.370966854761 0.054564625560569 -83.8377493393631 
! Gamma         0                0                0                0                
! Port Impedance         50               0                50               0                
9.18                           0.0501252081623707 -84.2463081053202 0.997792994777739 -174.830292434382 0.997792994777739 -174.830292434382 0.0501252081623707 -84.2463081053197 
! Gamma         0                0                0                0                
! Port Impedance         50               0                50               0                
9.2                            0.0456806569952424 -84.645176403753 0.998003732898035 -175.289821517781 0.998003732898034 -175.289821517781 0.0456806569952423 -84.6451764037527 
! Gamma         0                0                0                0                
! Port Impedance         50               0                50               0                
9.22                           0.0412314431667285 -85.031122434996 0.998194866710158 -175.749536126239 0.998194866710158 -175.749536126239 0.0412314431667284 -85.0311224349961 
! Gamma         0                0                0                0                
! Port Impedance         50               0                50               0                
9.24                           0.0367780472668541 -85.3993535001709 0.99836632804354 -176.209418204147 0.99836632804354 -176.209418204147 0.0367780472668541 -85.3993535001709 
! Gamma         0                0                0                0                
! Port Impedance         50               0                50               0                
9.26                           0.0323209642822673 -85.7424376308846 0.998518055650642 -176.669449626381 0.998518055650643 -176.669449626381 0.0323209642822672 -85.7424376308853 
! Gamma         0                0                0                0                
! Port Impedance         50               0                50               0                
9.28                           0.0278607134267326 -86.0481879333614 0.998649995254724 -177.129612205738 0.998649995254724 -177.129612205738 0.0278607134267326 -86.0481879333617 
! Gamma         0                0                0                0                
! Port Impedance         50               0                50               0                
9.3                            0.0233978594618194 -86.2951235980065 0.998762099592269 -177.589887700427 0.998762099592269 -177.589887700427 0.0233978594618194 -86.2951235980065 
! Gamma         0                0                0                0                
! Port Impedance         50               0                50               0                
9.32                           0.0189330644897423 -86.4415062125378 0.99885432844999 -178.050257821615 0.99885432844999 -178.050257821615 0.0189330644897423 -86.4415062125382 
! Gamma         0                0                0                0                
! Port Impedance         50               0                50               0                
9.34                           0.0144672360813801 -86.394072910287 0.998926648696367 -178.510704241012 0.998926648696367 -178.510704241012 0.0144672360813802 -86.3940729102855 
! Gamma         0                0                0                0                
! Port Impedance         50               0                50               0                
9.36                           0.0100020727793753 -85.8930813850008 0.998979034307662 -178.971208598498 0.998979034307662 -178.971208598498 0.0100020727793753 -85.8930813850001 
! Gamma         0                0                0                0                
! Port Impedance         50               0                50               0                
9.38                           0.0055432453852659 -83.8433869128148 0.999011466388374 -179.431752509774 0.999011466388374 -179.431752509774 0.00554324538526596 -83.8433869128096 
! Gamma         0                0                0                0                
! Port Impedance         50               0                50               0                
9.4                            0.00117795475749178 -62.4709656836859 0.999023933186102 -179.892317574042 0.999023933186102 -179.892317574042 0.00117795475749183 -62.4709656836805 
! Gamma         0                0                0                0                
! Port Impedance         50               0                50               0                
9.42                           0.00346887554738734 80.6057902900175 0.999016430100794 179.64711461831  0.999016430100793 179.64711461831  0.00346887554738736 80.6057902900154 
! Gamma         0                0                0                0                
! Port Impedance         50               0                50               0                
9.44                           0.00791574491626374 85.2188775244539 0.998988959688361 179.186562478002 0.998988959688361 179.186562478002 0.00791574491626373 85.2188775244539 
! Gamma         0                0                0                0                
! Port Impedance         50               0                50               0                
9.46                           0.0123791560402775 86.1782933860552 0.998941531658664 178.726044409167 0.998941531658664 178.726044409167 0.0123791560402776 86.1782933860546 
! Gamma         0                0                0                0                
! Port Impedance         50               0                50               0                
9.48                           0.0168448218786877 86.3849720673701 0.998874162867861 178.265578801651 0.998874162867861 178.265578801651 0.0168448218786878 86.3849720673701 
! Gamma         0                0                0                0                
! Port Impedance         50               0                50               0                
9.5                            0.0213100300196654 86.3120739743131 0.998786877305136 177.805184023336 0.998786877305136 177.805184023336 0.0213100300196655 86.3120739743128 
! Gamma         0                0                0                0                
! Port Impedance         50               0                50               0                
9.52                           0.0257736252766641 86.104984659912  0.998679706073834 177.344878412475 0.998679706073833 177.344878412475 0.0257736252766642 86.1049846599115 
! Gamma         0                0                0                0                
! Port Impedance         50               0                50               0                
9.54                           0.0302348608326231 85.8232250480762 0.998552687367014 176.884680270065 0.998552687367013 176.884680270065 0.0302348608326231 85.8232250480752 
! Gamma         0                0                0                0                
! Port Impedance         50               0                50               0                
9.56                           0.0346931363397449 85.4956871219294 0.998405866437478 176.424607852243 0.998405866437478 176.424607852243 0.0346931363397449 85.4956871219292 
! Gamma         0                0                0                0                
! Port Impedance         50               0                50               0                
9.58                           0.0391479153091873 85.1380935518604 0.998239295562316 175.964679362729 0.998239295562315 175.964679362729 0.0391479153091873 85.1380935518606 
! Gamma         0                0                0                0                
! Port Impedance         50               0                50               0                
9.6                            0.0435986933553921 84.7597369565721 0.998053034002007 175.504912945321 0.998053034002007 175.504912945321 0.0435986933553922 84.759736956572  
! Gamma         0                0                0                0                
! Port Impedance         50               0                50               0                
9.62                           0.0480449842430983 84.3664650452447 0.997847147954165 175.04532667644  0.997847147954165 175.04532667644  0.0480449842430983 84.3664650452447 
! Gamma         0                0                0                0                
! Port Impedance         50               0                50               0                
9.64                           0.0524863131480339 83.9621440679128 0.997621710501977 174.585938557737 0.997621710501977 174.585938557737 0.0524863131480339 83.9621440679132 
! Gamma         0                0                0                0                
! Port Impedance         50               0                50               0                
9.66                           0.0569222131756301 83.5494346539898 0.997376801557432 174.126766508774 0.997376801557432 174.126766508774 0.0569222131756302 83.5494346539898 
! Gamma         0                0                0                0                
! Port Impedance         50               0                50               0                
9.68                           0.0613522234801214 83.1302295805284 0.997112507799404 173.667828359774 0.997112507799404 173.667828359774 0.0613522234801214 83.1302295805287 
! Gamma         0                0                0                0                
! Port Impedance         50               0                50               0                
9.7                            0.0657758882241605 82.7059136944471 0.996828922606716 173.209141844455 0.996828922606716 173.209141844455 0.0657758882241604 82.7059136944468 
! Gamma         0                0                0                0                
! Port Impedance         50               0                50               0                
9.72                           0.0701927560044719 82.2775249334113 0.996526145986246 172.750724592957 0.996526145986246 172.750724592957 0.070192756004472 82.2775249334109 
! Gamma         0                0                0                0                
! Port Impedance         50               0                50               0                
9.74                           0.074602379547638 81.8458577297713 0.996204284496222 172.292594124852 0.996204284496222 172.292594124852 0.074602379547638 81.8458577297712 
! Gamma         0                0                0                0                
! Port Impedance         50               0                50               0                
9.76                           0.079004315568227 81.4115314954008 0.995863451164796 171.834767842264 0.995863451164797 171.834767842264 0.0790043155682269 81.411531495401  
! Gamma         0                0                0                0                
! Port Impedance         50               0                50               0                
9.78                           0.0833981247273444 80.9750372108352 0.995503765404025 171.377263023088 0.995503765404025 171.377263023088 0.0833981247273445 80.9750372108351 
! Gamma         0                0                0                0                
! Port Impedance         50               0                50               0                
9.8                            0.0877833716546884 80.5367698719126 0.99512535291939 170.920096814326 0.99512535291939 170.920096814326 0.0877833716546883 80.5367698719126 
! Gamma         0                0                0                0                
! Port Impedance         50               0                50               0                
9.82                           0.0921596250113396 80.0970515606649 0.994728345614988 170.463286225534 0.994728345614988 170.463286225534 0.0921596250113396 80.097051560665  
! Gamma         0                0                0                0                
! Port Impedance         50               0                50               0                
9.84                           0.0965264575788347 79.6561481554282 0.994312881494523 170.006848122395 0.994312881494523 170.006848122395 0.0965264575788348 79.6561481554282 
! Gamma         0                0                0                0                
! Port Impedance         50               0                50               0                
9.86                           0.100883446365107 79.2142816358055 0.993879104558262 169.550799220415 0.993879104558262 169.550799220415 0.100883446365107 79.2142816358056 
! Gamma         0                0                0                0                
! Port Impedance         50               0                50               0                
9.88                           0.105230172720989 78.7716392798925 0.993427164696081 169.095156078754 0.993427164696081 169.095156078754 0.105230172720989 78.7716392798927 
! Gamma         0                0                0                0                
! Port Impedance         50               0                50               0                
9.9                            0.109566222462978 78.3283806321153 0.992957217576774 168.639935094195 0.992957217576774 168.639935094195 0.109566222462978 78.3283806321153 
! Gamma         0                0                0                0                
! Port Impedance         50               0                50               0                
9.92                           0.113891185999275 77.8846428473515 0.992469424533774 168.185152495245 0.992469424533773 168.185152495245 0.113891185999275 77.8846428473514 
! Gamma         0                0                0                0                
! Port Impedance         50               0                50               0                
9.94                           0.118204658456943 77.4405448359844 0.991963952447445 167.730824336388 0.991963952447445 167.730824336388 0.118204658456943 77.4405448359844 
! Gamma         0                0                0                0                
! Port Impedance         50               0                50               0                
9.96                           0.122506239808643 76.9961905122051 0.991440973624117 167.27696649249  0.991440973624117 167.27696649249  0.122506239808643 76.9961905122051 
! Gamma         0                0                0                0                
! Port Impedance         50               0                50               0                
9.98                           0.12679553499782 76.551671363807  0.990900665672031 166.823594653344 0.990900665672031 166.823594653344 0.12679553499782 76.551671363807  
! Gamma         0                0                0                0                
! Port Impedance         50               0                50               0                
10                             0.131072154061465 76.1070685030645 0.990343211374355 166.37072431838  0.990343211374354 166.37072431838  0.131072154061465 76.1070685030644 
! Gamma         0                0                0                0                
! Port Impedance         50               0                50               0                
10.02                          0.135335712249819 75.6624543167946 0.989768798559455 165.918370791537 0.989768798559455 165.918370791537 0.135335712249819 75.6624543167945 
! Gamma         0                0                0                0                
! Port Impedance         50               0                50               0                
10.04                          0.139585830142498 75.2178938039601 0.989177619968598 165.466549176284 0.989177619968599 165.466549176284 0.139585830142498 75.2178938039602 
! Gamma         0                0                0                0                
! Port Impedance         50               0                50               0                
10.06                          0.143822133760684 74.7734456675994 0.988569873121252 165.015274370819 0.988569873121251 165.015274370819 0.143822133760684 74.7734456675993 
! Gamma         0                0                0                0                
! Port Impedance         50               0                50               0                
10.08                          0.148044254675035 74.3291632120491 0.987945760178161 164.564561063427 0.98794576017816 164.564561063427 0.148044254675035 74.3291632120491 
! Gamma         0                0                0                0                
! Port Impedance         50               0                50               0                
10.1                           0.152251830109104 73.8850950846941 0.987305487802393 164.11442372801  0.987305487802393 164.11442372801  0.152251830109104 73.8850950846941 
! Gamma         0                0                0                0                
! Port Impedance         50               0                50               0                
10.12                          0.156444503038053 73.4412858927142 0.986649267018517 163.66487661979  0.986649267018517 163.66487661979  0.156444503038053 73.4412858927141 
! Gamma         0                0                0                0                
! Port Impedance         50               0                50               0                
10.14                          0.160621922282528 72.9977767186508 0.985977313070098 163.215933771179 0.985977313070098 163.215933771179 0.160621922282528 72.9977767186507 
! Gamma         0                0                0                0                
! Port Impedance         50               0                50               0                
10.16                          0.16478374259756 72.5546055535894 0.98528984527569 162.767608987832 0.98528984527569 162.767608987832 0.16478374259756 72.5546055535894 
! Gamma         0                0                0                0                
! Port Impedance         50               0                50               0                
10.18                          0.168929624756397 72.1118076628616 0.984587086883503 162.319915844869 0.984587086883502 162.319915844869 0.168929624756397 72.1118076628615 
! Gamma         0                0                0                0                
! Port Impedance         50               0                50               0                
10.2                           0.173059235629219 71.6694158961772 0.983869264924921 161.872867683276 0.98386926492492 161.872867683276 0.173059235629219 71.669415896177  
! Gamma         0                0                0                0                
! Port Impedance         50               0                50               0                
10.22                          0.177172248256648 71.2274609517604 0.983136610067051 161.426477606485 0.983136610067051 161.426477606485 0.177172248256648 71.2274609517604 
! Gamma         0                0                0                0                
! Port Impedance         50               0                50               0                
10.24                          0.181268341918048 70.7859716022283 0.982389356464474 160.980758477128 0.982389356464474 160.980758477128 0.181268341918048 70.7859716022284 
! Gamma         0                0                0                0                
! Port Impedance         50               0                50               0                
10.26                          0.185347202194574 70.3449748885036 0.981627741610366 160.535722913976 0.981627741610367 160.535722913976 0.185347202194574 70.3449748885035 
! Gamma         0                0                0                0                
! Port Impedance         50               0                50               0                
10.28                          0.189408521026975 69.9044962869009 0.980852006187176 160.09138328905  0.980852006187176 160.09138328905  0.189408521026975 69.904496286901  
! Gamma         0                0                0                0                
! Port Impedance         50               0                50               0                
10.3                           0.19345199676814 69.4645598536123 0.980062393917006 159.647751724912 0.980062393917006 159.647751724912 0.19345199676814 69.4645598536123 
! Gamma         0                0                0                0                
! Port Impedance         50               0                50               0                
10.32                          0.197477334230417 69.0251883500731 0.979259151411882 159.204840092137 0.979259151411882 159.204840092137 0.197477334230417 69.025188350073  
! Gamma         0                0                0                0                
! Port Impedance         50               0                50               0                
10.34                          0.201484244727714 68.5864033520952 0.97844252802406 158.76266000696  0.97844252802406 158.76266000696  0.201484244727714 68.5864033520951 
! Gamma         0                0                0                0                
! Port Impedance         50               0                50               0                
10.36                          0.205472446112425 68.1482253451758 0.977612775696536 158.321222829096 0.977612775696537 158.321222829096 0.205472446112425 68.1482253451758 
! Gamma         0                0                0                0                
! Port Impedance         50               0                50               0                
10.38                          0.209441662807212 67.7106738079861 0.976770148813921 157.880539659745 0.976770148813921 157.880539659745 0.209441662807213 67.7106738079861 
! Gamma         0                0                0                0                
! Port Impedance         50               0                50               0                
10.4                           0.213391625831708 67.2737672857276 0.975914904053808 157.44062133976  0.975914904053808 157.44062133976  0.213391625831708 67.2737672857277 
! Gamma         0                0                0                0                
! Port Impedance         50               0                50               0                
10.42                          0.217322072824174 66.8375234547764 0.975047300238815 157.001478447999 0.975047300238815 157.001478447999 0.217322072824174 66.8375234547763 
! Gamma         0                0                0                0                
! Port Impedance         50               0                50               0                
10.44                          0.221232748058191 66.4019591798148 0.974167598189429 156.563121299838 0.974167598189428 156.563121299838 0.221232748058191 66.4019591798148 
! Gamma         0                0                0                0                
! Port Impedance         50               0                50               0                
10.46                          0.225123402454455 65.9670905644672 0.973276060577777 156.125559945863 0.973276060577777 156.125559945863 0.225123402454455 65.9670905644673 
! Gamma         0                0                0                0                
! Port Impedance         50               0                50               0                
10.48                          0.228993793587733 65.5329329963076 0.972372951782498 155.688804170721 0.972372951782498 155.688804170721 0.228993793587733 65.5329329963076 
! Gamma         0                0                0                0                
! Port Impedance         50               0                50               0                
10.5                           0.232843685689082 65.0995011869758 0.971458537744809 155.252863492146 0.971458537744809 155.252863492146 0.232843685689082 65.0995011869758 
! Gamma         0                0                0                0                
! Port Impedance         50               0                50               0                
10.52                          0.236672849643405 64.6668092080363 0.970533085825913 154.81774716014  0.970533085825913 154.81774716014  0.236672849643405 64.6668092080363 
! Gamma         0                0                0                0                
! Port Impedance         50               0                50               0                
10.54                          0.240481062982435 64.2348705231216 0.969596864665867 154.383464156322 0.969596864665867 154.383464156322 0.240481062982435 64.2348705231217 
! Gamma         0                0                0                0                
! Port Impedance         50               0                50               0                
10.56                          0.244268109873242 63.8036980168281 0.968650144044024 153.950023193429 0.968650144044025 153.950023193429 0.244268109873242 63.8036980168282 
! Gamma         0                0                0                0                
! Port Impedance         50               0                50               0                
10.58                          0.248033781102367 63.3733040207664 0.967693194741165 153.517432714979 0.967693194741165 153.517432714979 0.248033781102366 63.3733040207663 
! Gamma         0                0                0                0                
! Port Impedance         50               0                50               0                
10.6                           0.251777874055676 62.9437003371156 0.966726288403417 153.085700895081 0.966726288403417 153.085700895081 0.251777874055676 62.9437003371155 
! Gamma         0                0                0                0                
! Port Impedance         50               0                50               0                
10.62                          0.25550019269406 62.5148982599844 0.965749697408085 152.654835638404 0.965749697408085 152.654835638404 0.25550019269406 62.5148982599844 
! Gamma         0                0                0                0                
! Port Impedance         50               0                50               0                
10.64                          0.259200547525054 62.0869085948399 0.964763694731459 152.224844580281 0.964763694731458 152.224844580281 0.259200547525054 62.0869085948399 
! Gamma         0                0                0                0                
! Port Impedance         50               0                50               0                
10.66                          0.262878755570535 61.6597416762347 0.963768553818716 151.795735086971 0.963768553818716 151.795735086971 0.262878755570534 61.6597416762347 
! Gamma         0                0                0                0                
! Port Impedance         50               0                50               0                
10.68                          0.26653464033057 61.2334073840298 0.962764548455999 151.367514256048 0.962764548455999 151.367514256048 0.26653464033057 61.2334073840298 
! Gamma         0                0                0                0                
! Port Impedance         50               0                50               0                
10.7                           0.270168031743559 60.8079151582898 0.961751952644732 150.940188916937 0.961751952644732 150.940188916937 0.270168031743559 60.8079151582899 
! Gamma         0                0                0                0                
! Port Impedance         50               0                50               0                
10.72                          0.273778766142783 60.3832740130024 0.960731040478287 150.513765631584 0.960731040478287 150.513765631584 0.273778766142783 60.3832740130023 
! Gamma         0                0                0                0                
! Port Impedance         50               0                50               0                
10.74                          0.277366686209472 59.9594925487533 0.959702086021031 150.088250695249 0.959702086021031 150.088250695249 0.277366686209472 59.9594925487532 
! Gamma         0                0                0                0                
! Port Impedance         50               0                50               0                
10.76                          0.280931640922527 59.5365789644803 0.958665363189851 149.663650137436 0.958665363189851 149.663650137436 0.280931640922527 59.5365789644803 
! Gamma         0                0                0                0                
! Port Impedance         50               0                50               0                
10.78                          0.284473485505014 59.1145410684028 0.957621145638204 149.239969722936 0.957621145638204 149.239969722936 0.284473485505013 59.1145410684029 
! Gamma         0                0                0                0                
! Port Impedance         50               0                50               0                
10.8                           0.287992081367544 58.6933862882239 0.956569706642746 148.817214953003 0.956569706642747 148.817214953003 0.287992081367544 58.6933862882239 
! Gamma         0                0                0                0                
! Port Impedance         50               0                50               0                
10.82                          0.291487296048691 58.2731216806814 0.955511318992603 148.395391066632 0.955511318992604 148.395391066632 0.291487296048691 58.2731216806813 
! Gamma         0                0                0                0                
! Port Impedance         50               0                50               0                
10.84                          0.294959003152537 57.8537539405211 0.954446254881309 147.974503041963 0.954446254881309 147.974503041963 0.294959003152537 57.8537539405211 
! Gamma         0                0                0                0                
! Port Impedance         50               0                50               0                
10.86                          0.298407082283505 57.4352894089541 0.953374785801474 147.55455559778  0.953374785801474 147.55455559778  0.298407082283505 57.4352894089542 
! Gamma         0                0                0                0                
! Port Impedance         50               0                50               0                
10.88                          0.301831418978576 57.0177340816535 0.952297182442204 147.13555319513  0.952297182442204 147.13555319513  0.301831418978576 57.0177340816535 
! Gamma         0                0                0                0                
! Port Impedance         50               0                50               0                
10.9                           0.305231904637043 56.6010936163399 0.951213714589314 146.717500039028 0.951213714589313 146.717500039028 0.305231904637043 56.6010936163398 
! Gamma         0                0                0                0                
! Port Impedance         50               0                50               0                
10.92                          0.308608436447897 56.1853733399997 0.950124651028342 146.300400080274 0.950124651028342 146.300400080274 0.308608436447898 56.1853733399997 
! Gamma         0                0                0                0                
! Port Impedance         50               0                50               0                
10.94                          0.311960917315003 55.7705782557736 0.949030259450423 145.884257017351 0.949030259450423 145.884257017351 0.311960917315003 55.7705782557736 
! Gamma         0                0                0                0                
! Port Impedance         50               0                50               0                
10.96                          0.31528925578015 55.3567130495513 0.947930806360994 145.469074298419 0.947930806360994 145.469074298419 0.31528925578015 55.3567130495513 
! Gamma         0                0                0                0                
! Port Impedance         50               0                50               0                
10.98                          0.318593365944141 54.9437820963002 0.946826556991382 145.054855123398 0.946826556991383 145.054855123398 0.318593365944141 54.9437820963003 
! Gamma         0                0                0                0                
! Port Impedance         50               0                50               0                
11                             0.321873167386006 54.5317894661582 0.94571777521327 144.641602446127 0.945717775213271 144.641602446127 0.321873167386006 54.5317894661583 
! Gamma         0                0                0                0                
! Port Impedance         50               0                50               0                
11.02                          0.325128585080481 54.1207389303119 0.944604723456041 144.229318976599 0.944604723456042 144.229318976599 0.325128585080482 54.1207389303119 
! Gamma         0                0                0                0                
! Port Impedance         50               0                50               0                
11.04                          0.32835954931387 53.7106339666822 0.943487662627012 143.818007183286 0.943487662627012 143.818007183286 0.32835954931387 53.7106339666822 
! Gamma         0                0                0                0                
! Port Impedance         50               0                50               0                
11.06                          0.331565995598382 53.3014777654379 0.942366852034552 143.407669295513 0.942366852034552 143.407669295513 0.331565995598382 53.3014777654379 
! Gamma         0                0                0                0                
! Port Impedance         50               0                50               0                
11.08                          0.334747864585106 52.8932732343504 0.941242549314074 142.998307305917 0.941242549314074 142.998307305917 0.334747864585106 52.8932732343504 
! Gamma         0                0                0                0                
! Port Impedance         50               0                50               0                
11.1                           0.337905101975682 52.4860230040085 0.940115010356904 142.589922972963 0.940115010356904 142.589922972963 0.337905101975682 52.4860230040084 
! Gamma         0                0                0                0                
! Port Impedance         50               0                50               0                
11.12                          0.341037658432824 52.0797294329025 0.938984489241998 142.182517823516 0.938984489241998 142.182517823516 0.341037658432824 52.0797294329025 
! Gamma         0                0                0                0                
! Port Impedance         50               0                50               0                
11.14                          0.344145489489777 51.6743946123928 0.937851238170502 141.776093155475 0.937851238170502 141.776093155475 0.344145489489777 51.6743946123928 
! Gamma         0                0                0                0                
! Port Impedance         50               0                50               0                
11.16                          0.347228555458824 51.2700203715701 0.936715507403138 141.37065004046  0.936715507403138 141.37065004046  0.347228555458824 51.2700203715701 
! Gamma         0                0                0                0                
! Port Impedance         50               0                50               0                
11.18                          0.350286821338954 50.8666082820192 0.935577545200385 140.966189326543 0.935577545200385 140.966189326543 0.350286821338954 50.8666082820192 
! Gamma         0                0                0                0                
! Port Impedance         50               0                50               0                
11.2                           0.353320256722776 50.4641596624915 0.93443759776544 140.562711641029 0.93443759776544 140.562711641029 0.353320256722775 50.4641596624916 
! Gamma         0                0                0                0                
! Port Impedance         50               0                50               0                
11.22                          0.356328835702798 50.0626755834967 0.933295909189922 140.160217393277 0.933295909189922 140.160217393277 0.356328835702798 50.0626755834966 
! Gamma         0                0                0                0                
! Port Impedance         50               0                50               0                
11.24                          0.359312536777156 49.6621568718157 0.9321527214023  139.758706777566 0.9321527214023  139.758706777566 0.359312536777156 49.6621568718157 
! Gamma         0                0                0                0                
! Port Impedance         50               0                50               0                
11.26                          0.36227134275489 49.262604114945  0.931008274119007 139.358179775986 0.931008274119007 139.358179775986 0.362271342754889 49.262604114945  
! Gamma         0                0                0                0                
! Port Impedance         50               0                50               0                
11.28                          0.365205240660856 48.8640176654731 0.929862804798201 138.958636161374 0.929862804798201 138.958636161374 0.365205240660856 48.8640176654731 
! Gamma         0                0                0                0                
! Port Impedance         50               0                50               0                
11.3                           0.368114221640381 48.4663976453947 0.928716548596151 138.560075500267 0.928716548596151 138.560075500267 0.368114221640381 48.4663976453947 
! Gamma         0                0                0                0                
! Port Impedance         50               0                50               0                
11.32                          0.370998280863715 48.0697439503683 0.927569738326192 138.162497155895 0.927569738326192 138.162497155895 0.370998280863715 48.0697439503683 
! Gamma         0                0                0                0                
! Port Impedance         50               0                50               0                
11.34                          0.373857417430392 47.6740562539168 0.926422604420225 137.765900291184 0.926422604420225 137.765900291184 0.373857417430392 47.6740562539168 
! Gamma         0                0                0                0                
! Port Impedance         50               0                50               0                
11.36                          0.376691634273576 47.2793340115757 0.925275374892705 137.370283871792 0.925275374892706 137.370283871792 0.376691634273576 47.2793340115758 
! Gamma         0                0                0                0                
! Port Impedance         50               0                50               0                
11.38                          0.379500938064455 46.8855764649922 0.92412827530709 136.975646669149 0.92412827530709 136.975646669149 0.379500938064454 46.8855764649923 
! Gamma         0                0                0                0                
! Port Impedance         50               0                50               0                
11.4                           0.382285339116774 46.4927826459745 0.922981528744687 136.581987263529 0.922981528744687 136.581987263529 0.382285339116774 46.4927826459745 
! Gamma         0                0                0                0                
! Port Impedance         50               0                50               0                
11.42                          0.385044851291579 46.1009513804959 0.921835355775874 136.189304047114 0.921835355775874 136.189304047114 0.385044851291579 46.1009513804959 
! Gamma         0                0                0                0                
! Port Impedance         50               0                50               0                
11.44                          0.38777949190223 45.7100812926525 0.920689974433617 135.797595227089 0.920689974433618 135.797595227089 0.387779491902229 45.7100812926525 
! Gamma         0                0                0                0                
! Port Impedance         50               0                50               0                
11.46                          0.390489281619762 45.3201708085783 0.91954560018927 135.406858828725 0.91954560018927 135.406858828725 0.390489281619762 45.3201708085783 
! Gamma         0                0                0                0                
! Port Impedance         50               0                50               0                
11.48                          0.393174244378655 44.9312181603157 0.91840244593058 135.017092698478 0.91840244593058 135.017092698478 0.393174244378654 44.9312181603157 
! Gamma         0                0                0                0                
! Port Impedance         50               0                50               0                
11.5                           0.395834407283068 44.5432213896453 0.917260721941863 134.628294507087 0.917260721941863 134.628294507087 0.395834407283068 44.5432213896452 
! Gamma         0                0                0                0                
! Port Impedance         50               0                50               0                
11.52                          0.39846980051361 44.1561783518729 0.916120635886294 134.240461752674 0.916120635886293 134.240461752674 0.39846980051361 44.1561783518729 
! Gamma         0                0                0                0                
! Port Impedance         50               0                50               0                
11.54                          0.401080457234687 43.770086719576  0.914982392790257 133.853591763832 0.914982392790257 133.853591763832 0.401080457234687 43.770086719576  
! Gamma         0                0                0                0                
! Port Impedance         50               0                50               0                
11.56                          0.403666413502494 43.3849439863093 0.913846195029716 133.467681702725 0.913846195029716 133.467681702725 0.403666413502494 43.3849439863093 
! Gamma         0                0                0                0                
! Port Impedance         50               0                50               0                
11.58                          0.406227708173688 43.0007474702695 0.912712242318528 133.082728568166 0.912712242318528 133.082728568166 0.406227708173689 43.0007474702695 
! Gamma         0                0                0                0                
! Port Impedance         50               0                50               0                
11.6                           0.408764382814808 42.6174943179199 0.911580731698679 132.698729198692 0.911580731698679 132.698729198692 0.408764382814808 42.6174943179198 
! Gamma         0                0                0                0                
! Port Impedance         50               0                50               0                
11.62                          0.411276481612463 42.2351815075745 0.910451857532364 132.315680275635 0.910451857532364 132.315680275635 0.411276481612463 42.2351815075745 
! Gamma         0                0                0                0                
! Port Impedance         50               0                50               0                
11.64                          0.413764051284362 41.8538058529424 0.909325811495864 131.933578326167 0.909325811495864 131.933578326167 0.413764051284362 41.8538058529424 
! Gamma         0                0                0                0                
! Port Impedance         50               0                50               0                
11.66                          0.416227140991199 41.4733640066303 0.908202782575176 131.55241972634  0.908202782575176 131.55241972634  0.416227140991199 41.4733640066303 
! Gamma         0                0                0                0                
! Port Impedance         50               0                50               0                
11.68                          0.418665802249439 41.0938524636061 0.907082957063331 131.172200704112 0.907082957063331 131.172200704112 0.41866580224944 41.0938524636061 
! Gamma         0                0                0                0                
! Port Impedance         50               0                50               0                
11.7                           0.421080088845058 40.7152675646212 0.905966518559349 130.792917342345 0.905966518559349 130.792917342345 0.421080088845058 40.7152675646212 
! Gamma         0                0                0                0                
! Port Impedance         50               0                50               0                
11.72                          0.423470056748239 40.3376054995914 0.904853647968788 130.414565581795 0.904853647968788 130.414565581795 0.423470056748239 40.3376054995914 
! Gamma         0                0                0                0                
! Port Impedance         50               0                50               0                
11.74                          0.425835764029085 39.9608623109381 0.903744523505819 130.037141224075 0.903744523505819 130.037141224075 0.425835764029085 39.9608623109381 
! Gamma         0                0                0                0                
! Port Impedance         50               0                50               0                
11.76                          0.428177270774355 39.5850338968873 0.902639320696782 129.660639934596 0.902639320696782 129.660639934596 0.428177270774355 39.5850338968873 
! Gamma         0                0                0                0                
! Port Impedance         50               0                50               0                
11.78                          0.430494639005266 39.2101160147269 0.901538212385173 129.285057245487 0.901538212385173 129.285057245487 0.430494639005266 39.2101160147269 
! Gamma         0                0                0                0                
! Port Impedance         50               0                50               0                
11.8                           0.432787932596378 38.8361042840238 0.900441368738006 128.910388558489 0.900441368738006 128.910388558489 0.432787932596378 38.8361042840238 
! Gamma         0                0                0                0                
! Port Impedance         50               0                50               0                
11.82                          0.435057217195578 38.4629941897974 0.899348957253501 128.536629147826 0.8993489572535  128.536629147826 0.435057217195578 38.4629941897974 
! Gamma         0                0                0                0                
! Port Impedance         50               0                50               0                
11.84                          0.437302560145199 38.0907810856518 0.898261142770036 128.163774163039 0.898261142770037 128.163774163039 0.437302560145199 38.0907810856518 
! Gamma         0                0                0                0                
! Port Impedance         50               0                50               0                
11.86                          0.43952403040428 37.7194601968662 0.897178087476344 127.791818631806 0.897178087476345 127.791818631806 0.439524030404281 37.7194601968662 
! Gamma         0                0                0                0                
! Port Impedance         50               0                50               0                
11.88                          0.44172169847199 37.3490266234408 0.896099950922855 127.420757462724 0.896099950922855 127.420757462724 0.44172169847199 37.3490266234408 
! Gamma         0                0                0                0                
! Port Impedance         50               0                50               0                
11.9                           0.443895636312218 36.9794753431026 0.895026890034187 127.05058544806  0.895026890034187 127.05058544806  0.443895636312218 36.9794753431026 
! Gamma         0                0                0                0                
! Port Impedance         50               0                50               0                
11.92                          0.446045917279369 36.6108012142659 0.893959059122695 126.681297266476 0.893959059122695 126.681297266476 0.446045917279369 36.6108012142659 
! Gamma         0                0                0                0                
! Port Impedance         50               0                50               0                
11.94                          0.448172616045345 36.242998978951  0.892896609903062 126.312887485719 0.892896609903062 126.312887485719 0.448172616045345 36.242998978951  
! Gamma         0                0                0                0                
! Port Impedance         50               0                50               0                
11.96                          0.450275808527743 35.8760632656588 0.891839691507858 125.945350565278 0.891839691507857 125.945350565278 0.450275808527743 35.8760632656588 
! Gamma         0                0                0                0                
! Port Impedance         50               0                50               0                
11.98                          0.452355571819267 35.5099885922031 0.89078845050404 125.578680859011 0.89078845050404 125.578680859011 0.452355571819267 35.5099885922031 
! Gamma         0                0                0                0                
! Port Impedance         50               0                50               0                
12                             0.454411984118369 35.1447693684974 0.889743030910342 125.212872617734 0.889743030910342 125.212872617734 0.45441198411837 35.1447693684974 
! Gamma         0                0                0                0                
! Port Impedance         50               0                50               0                
12.02                          0.456445124661113 34.7803998993004 0.888703574215508 124.847919991775 0.888703574215508 124.847919991775 0.456445124661113 34.7803998993004 
! Gamma         0                0                0                0                
! Port Impedance         50               0                50               0                
12.04                          0.458455073654274 34.4168743869156 0.887670219397318 124.483817033499 0.887670219397318 124.483817033499 0.458455073654275 34.4168743869156 
! Gamma         0                0                0                0                
! Port Impedance         50               0                50               0                
12.06                          0.460441912209674 34.0541869338487 0.886643102942384 124.120557699791 0.886643102942384 124.120557699791 0.460441912209674 34.0541869338486 
! Gamma         0                0                0                0                
! Port Impedance         50               0                50               0                
12.08                          0.462405722279745 33.6923315454199 0.885622358866649 123.758135854502 0.885622358866649 123.758135854502 0.462405722279745 33.6923315454199 
! Gamma         0                0                0                0                
! Port Impedance         50               0                50               0                
12.1                           0.464346586594339 33.3313021323336 0.884608118736572 123.396545270865 0.884608118736572 123.396545270865 0.464346586594339 33.3313021323336 
! Gamma         0                0                0                0                
! Port Impedance         50               0                50               0                
12.12                          0.466264588598763 32.9710925132027 0.883600511690929 123.03577963387  0.883600511690929 123.03577963387  0.466264588598763 32.9710925132027 
! Gamma         0                0                0                0                
! Port Impedance         50               0                50               0                
12.14                          0.468159812393044 32.6116964170312 0.882599664463233 122.675832542599 0.882599664463233 122.675832542599 0.468159812393044 32.6116964170312 
! Gamma         0                0                0                0                
! Port Impedance         50               0                50               0                
12.16                          0.470032342672428 32.2531074856504 0.881605701404682 122.316697512529 0.881605701404683 122.316697512529 0.470032342672428 32.2531074856505 
! Gamma         0                0                0                0                
! Port Impedance         50               0                50               0                
12.18                          0.471882264669093 31.895319276114  0.880618744507644 121.958367977793 0.880618744507644 121.958367977793 0.471882264669092 31.895319276114  
! Gamma         0                0                0                0                
! Port Impedance         50               0                50               0                
12.2                           0.473709664095081 31.5383252630476 0.879638913429617 121.600837293407 0.879638913429617 121.600837293407 0.473709664095081 31.5383252630476 
! Gamma         0                0                0                0                
! Port Impedance         50               0                50               0                
12.22                          0.475514627086446 31.182118840956  0.878666325517634 121.244098737451 0.878666325517634 121.244098737451 0.475514627086445 31.1821188409561 
! Gamma         0                0                0                0                
! Port Impedance         50               0                50               0                
12.24                          0.477297240148591 30.8266933264869 0.877701095833078 120.888145513224 0.877701095833078 120.888145513224 0.477297240148591 30.8266933264869 
! Gamma         0                0                0                0                
! Port Impedance         50               0                50               0                
12.26                          0.479057590102811 30.4720419606507 0.876743337176876 120.53297075135  0.876743337176876 120.53297075135  0.479057590102811 30.4720419606507 
! Gamma         0                0                0                0                
! Port Impedance         50               0                50               0                
12.28                          0.48079576403401 30.1181579109985 0.875793160115036 120.178567511849 0.875793160115036 120.178567511849 0.48079576403401 30.1181579109985 
! Gamma         0                0                0                0                
! Port Impedance         50               0                50               0                
12.3                           0.482511849239604 29.7650342737564 0.874850673004494 119.824928786171 0.874850673004495 119.824928786171 0.482511849239604 29.7650342737564 
! Gamma         0                0                0                0                
! Port Impedance         50               0                50               0                
12.32                          0.484205933179572 29.4126640759179 0.873915982019245 119.47204749919  0.873915982019245 119.47204749919  0.484205933179573 29.4126640759179 
! Gamma         0                0                0                0                
! Port Impedance         50               0                50               0                
12.34                          0.485878103427678 29.0610402772935 0.872989191176718 119.119916511162 0.872989191176718 119.119916511162 0.485878103427678 29.0610402772935 
! Gamma         0                0                0                0                
! Port Impedance         50               0                50               0                
12.36                          0.487528447623816 28.7101557725186 0.87207040236438 118.768528619639 0.87207040236438 118.768528619639 0.487528447623816 28.7101557725186 
! Gamma         0                0                0                0                
! Port Impedance         50               0                50               0                
12.38                          0.489157053427497 28.3600033930196 0.871159715366529 118.417876561352 0.871159715366529 118.417876561352 0.489157053427497 28.3600033930196 
! Gamma         0                0                0                0                
! Port Impedance         50               0                50               0                
12.4                           0.490764008472443 28.0105759089382 0.870257227891248 118.067953014053 0.870257227891248 118.067953014053 0.490764008472443 28.0105759089382 
! Gamma         0                0                0                0                
! Port Impedance         50               0                50               0                
12.42                          0.492349400322287 27.6618660310153 0.869363035597508 117.718750598315 0.869363035597508 117.718750598315 0.492349400322287 27.6618660310153 
! Gamma         0                0                0                0                
! Port Impedance         50               0                50               0                
12.44                          0.49391331642736 27.3138664124334 0.86847723212237 117.370261879303 0.86847723212237 117.370261879303 0.493913316427361 27.3138664124334 
! Gamma         0                0                0                0                
! Port Impedance         50               0                50               0                
12.46                          0.495455844082552 26.966569650619  0.867599909108288 117.022479368497 0.867599909108288 117.022479368497 0.495455844082552 26.966569650619  
! Gamma         0                0                0                0                
! Port Impedance         50               0                50               0                
12.48                          0.496977070386229 26.6199682890041 0.866731156230467 116.675395525389 0.866731156230467 116.675395525389 0.496977070386228 26.6199682890041 
! Gamma         0                0                0                0                
! Port Impedance         50               0                50               0                
12.5                           0.498477082200204 26.2740548187493 0.865871061224263 116.329002759132 0.865871061224263 116.329002759132 0.498477082200204 26.2740548187493 
! Gamma         0                0                0                0                
! Port Impedance         50               0                50               0                
12.52                          0.499955966110725 25.9288216804264 0.865019709912606 115.983293430161 0.865019709912606 115.983293430161 0.499955966110725 25.9288216804264 
! Gamma         0                0                0                0                
! Port Impedance         50               0                50               0                
12.54                          0.501413808390488 25.5842612656626 0.864177186233413 115.638259851773 0.864177186233413 115.638259851773 0.501413808390487 25.5842612656627 
! Gamma         0                0                0                0                
! Port Impedance         50               0                50               0                
12.56                          0.502850694961633 25.2403659187465 0.86334357226698 115.29389429167  0.86334357226698 115.29389429167  0.502850694961633 25.2403659187465 
! Gamma         0                0                0                0                
! Port Impedance         50               0                50               0                
12.58                          0.504266711359748 24.8971279381943 0.862518948263328 114.950188973469 0.862518948263329 114.950188973469 0.504266711359748 24.8971279381943 
! Gamma         0                0                0                0                
! Port Impedance         50               0                50               0                
12.6                           0.505661942698803 24.5545395782813 0.861703392669491 114.607136078179 0.861703392669491 114.607136078179 0.505661942698803 24.5545395782813 
! Gamma         0                0                0                0                
! Port Impedance         50               0                50               0                
12.62                          0.507036473637068 24.2125930505332 0.860896982156709 114.264727745631 0.860896982156709 114.264727745631 0.507036473637068 24.2125930505332 
! Gamma         0                0                0                0                
! Port Impedance         50               0                50               0                
12.64                          0.508390388343943 23.8712805251826 0.860099791647534 113.922956075889 0.860099791647534 113.922956075889 0.508390388343944 23.8712805251826 
! Gamma         0                0                0                0                
! Port Impedance         50               0                50               0                
12.66                          0.509723770467715 23.530594132588  0.859311894342813 113.581813130614 0.859311894342813 113.581813130614 0.509723770467714 23.530594132588  
! Gamma         0                0                0                0                
! Port Impedance         50               0                50               0                
12.68                          0.511036703104204 23.1905259646178 0.858533361748535 113.241290934402 0.858533361748536 113.241290934402 0.511036703104204 23.1905259646178 
! Gamma         0                0                0                0                
! Port Impedance         50               0                50               0                
12.7                           0.512329268766311 22.8510680759989 0.857764263702535 112.901381476084 0.857764263702535 112.901381476084 0.512329268766311 22.8510680759989 
! Gamma         0                0                0                0                
! Port Impedance         50               0                50               0                
12.72                          0.513601549354413 22.5122124856291 0.857004668401026 112.562076709991 0.857004668401025 112.562076709991 0.513601549354413 22.5122124856291 
! Gamma         0                0                0                0                
! Port Impedance         50               0                50               0                
12.74                          0.514853626127622 22.1739511778575 0.856254642424956 112.223368557196 0.856254642424956 112.223368557196 0.514853626127622 22.1739511778575 
! Gamma         0                0                0                0                
! Port Impedance         50               0                50               0                
12.76                          0.51608557967587 21.8362761037286 0.855514250766176 111.885248906708 0.855514250766176 111.885248906708 0.51608557967587 21.8362761037286 
! Gamma         0                0                0                0                
! Port Impedance         50               0                50               0                
12.78                          0.517297489892817 21.4991791821945 0.854783556853392 111.54770961665  0.854783556853392 111.54770961665  0.517297489892817 21.4991791821945 
! Gamma         0                0                0                0                
! Port Impedance         50               0                50               0                
12.8                           0.518489435949554 21.1626523012941 0.854062622577906 111.210742515396 0.854062622577906 111.210742515396 0.518489435949554 21.1626523012941 
! Gamma         0                0                0                0                
! Port Impedance         50               0                50               0                
12.82                          0.519661496269092 20.8266873192988 0.853351508319126 110.874339402675 0.853351508319126 110.874339402675 0.519661496269092 20.8266873192987 
! Gamma         0                0                0                0                
! Port Impedance         50               0                50               0                
12.84                          0.520813748501619 20.491276065828  0.852650272969828 110.538492050655 0.852650272969828 110.538492050655 0.520813748501619 20.491276065828  
! Gamma         0                0                0                0                
! Port Impedance         50               0                50               0                
12.86                          0.521946269500509 20.1564103429321 0.851958973961172 110.203192204987 0.851958973961172 110.203192204987 0.521946269500508 20.1564103429321 
! Gamma         0                0                0                0                
! Port Impedance         50               0                50               0                
12.88                          0.523059135299058 19.8220819261451 0.85127766728745 109.868431585823 0.85127766728745 109.868431585823 0.523059135299058 19.8220819261451 
! Gamma         0                0                0                0                
! Port Impedance         50               0                50               0                
12.9                           0.524152421087954 19.4882825655069 0.850606407530562 109.534201888806 0.850606407530562 109.534201888806 0.524152421087953 19.4882825655069 
! Gamma         0                0                0                0                
! Port Impedance         50               0                50               0                
12.92                          0.525226201193431 19.1550039865555 0.849945247884205 109.200494786026 0.849945247884205 109.200494786026 0.52522620119343 19.1550039865555 
! Gamma         0                0                0                0                
! Port Impedance         50               0                50               0                
12.94                          0.526280549056124 18.8222378912908 0.849294240177779 108.867301926957 0.849294240177779 108.867301926957 0.526280549056124 18.8222378912908 
! Gamma         0                0                0                0                
! Port Impedance         50               0                50               0                
12.96                          0.52731553721059 18.4899759591084 0.848653434899985 108.534614939358 0.848653434899985 108.534614939358 0.52731553721059 18.4899759591084 
! Gamma         0                0                0                0                
! Port Impedance         50               0                50               0                
12.98                          0.52833123726548 18.158209847707  0.848022881222112 108.202425430148 0.848022881222112 108.202425430148 0.528331237265481 18.158209847707  
! Gamma         0                0                0                0                
! Port Impedance         50               0                50               0                
13                             0.529327719884361 17.8269311939659 0.847402627021022 107.870724986262 0.847402627021022 107.870724986262 0.529327719884361 17.826931193966  
! Gamma         0                0                0                0                
! Port Impedance         50               0                50               0                
13.02                          0.53030505476715 17.496131614798  0.846792718901795 107.539505175467 0.846792718901796 107.539505175467 0.53030505476715 17.496131614798  
! Gamma         0                0                0                0                
! Port Impedance         50               0                50               0                
13.04                          0.531263310632172 17.1658027079736 0.846193202220054 107.208757547164 0.846193202220053 107.208757547164 0.531263310632172 17.1658027079736 
! Gamma         0                0                0                0                
! Port Impedance         50               0                50               0                
13.06                          0.532202555198802 16.83593605292   0.845604121103948 106.878473633163 0.845604121103948 106.878473633163 0.532202555198801 16.83593605292   
! Gamma         0                0                0                0                
! Port Impedance         50               0                50               0                
13.08                          0.533122855170688 16.5065232114951 0.845025518475802 106.548644948424 0.845025518475802 106.548644948424 0.533122855170688 16.5065232114951 
! Gamma         0                0                0                0                
! Port Impedance         50               0                50               0                
13.1                           0.534024276219554 16.1775557287357 0.844457436073405 106.219262991789 0.844457436073405 106.219262991789 0.534024276219554 16.1775557287357 
! Gamma         0                0                0                0                
! Port Impedance         50               0                50               0                
13.12                          0.534906882969533 15.8490251335812 0.843899914470954 105.890319246675 0.843899914470954 105.890319246675 0.534906882969533 15.8490251335812 
! Gamma         0                0                0                0                
! Port Impedance         50               0                50               0                
13.14                          0.535770738982055 15.5209229395745 0.84335299309964 105.561805181753 0.84335299309964 105.561805181753 0.535770738982054 15.5209229395745 
! Gamma         0                0                0                0                
! Port Impedance         50               0                50               0                
13.16                          0.536615906741252 15.193240645538  0.842816710267862 105.233712251604 0.842816710267862 105.233712251604 0.536615906741252 15.1932406455379 
! Gamma         0                0                0                0                
! Port Impedance         50               0                50               0                
13.18                          0.537442447639878 14.8659697362276 0.842291103181084 104.906031897346 0.842291103181084 104.906031897346 0.537442447639878 14.8659697362276 
! Gamma         0                0                0                0                
! Port Impedance         50               0                50               0                
13.2                           0.538250421965719 14.5391016829645 0.841776207961311 104.57875554725  0.841776207961312 104.57875554725  0.538250421965719 14.5391016829645 
! Gamma         0                0                0                0                
! Port Impedance         50               0                50               0                
13.22                          0.539039888888501 14.2126279442443 0.841272059666198 104.25187461732  0.841272059666198 104.25187461732  0.539039888888501 14.2126279442443 
! Gamma         0                0                0                0                
! Port Impedance         50               0                50               0                
13.24                          0.539810906447252 13.8865399663258 0.840778692307769 103.925380511871 0.840778692307769 103.925380511871 0.539810906447252 13.8865399663258 
! Gamma         0                0                0                0                
! Port Impedance         50               0                50               0                
13.26                          0.540563531538141 13.5608291837983 0.840296138870766 103.599264624067 0.840296138870766 103.599264624067 0.540563531538141 13.5608291837983 
! Gamma         0                0                0                0                
! Port Impedance         50               0                50               0                
13.28                          0.541297819902755 13.2354870201287 0.839824431330601 103.273518336455 0.839824431330601 103.273518336455 0.541297819902755 13.2354870201287 
! Gamma         0                0                0                0                
! Port Impedance         50               0                50               0                
13.3                           0.54201382611681 12.9105048881894 0.839363600670926 102.94813302147  0.839363600670925 102.94813302147  0.54201382611681 12.9105048881894 
! Gamma         0                0                0                0                
! Port Impedance         50               0                50               0                
13.32                          0.542711603579295 12.5858741907661 0.838913676900809 102.623100041926 0.838913676900809 102.623100041926 0.542711603579295 12.5858741907661 
! Gamma         0                0                0                0                
! Port Impedance         50               0                50               0                
13.34                          0.543391204502017 12.2615863210475 0.83847468907152 102.298410751487 0.838474689071521 102.298410751487 0.543391204502017 12.2615863210475 
! Gamma         0                0                0                0                
! Port Impedance         50               0                50               0                
13.36                          0.544052679899555 11.9376326630965 0.838046665292916 101.974056495121 0.838046665292916 101.974056495121 0.544052679899555 11.9376326630965 
! Gamma         0                0                0                0                
! Port Impedance         50               0                50               0                
13.38                          0.544696079579603 11.6140045923035 0.837629632749428 101.650028609534 0.837629632749428 101.650028609534 0.544696079579603 11.6140045923035 
! Gamma         0                0                0                0                
! Port Impedance         50               0                50               0                
13.4                           0.54532145213369 11.290693475823  0.837223617715656 101.326318423593 0.837223617715656 101.326318423593 0.54532145213369 11.290693475823  
! Gamma         0                0                0                0                
! Port Impedance         50               0                50               0                
13.42                          0.545928844928276 10.9676906729928 0.836828645571552 101.002917258723 0.836828645571552 101.002917258723 0.545928844928276 10.9676906729928 
! Gamma         0                0                0                0                
! Port Impedance         50               0                50               0                
13.44                          0.546518304096195 10.6449875357371 0.836444740817204 100.6798164293   0.836444740817204 100.6798164293   0.546518304096195 10.6449875357371 
! Gamma         0                0                0                0                
! Port Impedance         50               0                50               0                
13.46                          0.547089874528464 10.3225754089544 0.83607192708722 100.35700724302  0.83607192708722 100.35700724302  0.547089874528464 10.3225754089544 
! Gamma         0                0                0                0                
! Port Impedance         50               0                50               0                
13.48                          0.54764359986642 10.0004456308896 0.8357102271647  100.034481001253 0.8357102271647  100.034481001253 0.54764359986642 10.0004456308896 
! Gamma         0                0                0                0                
! Port Impedance         50               0                50               0                
13.5                           0.548179522494191 9.67858953349083 0.835359662994798 99.7122289993885 0.835359662994798 99.7122289993885 0.548179522494191 9.67858953349083 
! Gamma         0                0                0                0                
! Port Impedance         50               0                50               0                
13.52                          0.548697683531495 9.35699844275334 0.835020255697887 99.3902425271631 0.835020255697887 99.3902425271631 0.548697683531495 9.35699844275334 
! Gamma         0                0                0                0                
! Port Impedance         50               0                50               0                
13.54                          0.549198122826742 9.03566367904856 0.834692025582304 99.0685128689733 0.834692025582304 99.0685128689733 0.549198122826741 9.03566367904856 
! Gamma         0                0                0                0                
! Port Impedance         50               0                50               0                
13.56                          0.549680878950449 8.71457655743949 0.83437499215669 98.7470313041775 0.83437499215669 98.7470313041775 0.549680878950449 8.71457655743949 
! Gamma         0                0                0                0                
! Port Impedance         50               0                50               0                
13.58                          0.550145989188955 8.39372838798437 0.834069174141918 98.4257891073851 0.834069174141918 98.4257891073851 0.550145989188955 8.39372838798438 
! Gamma         0                0                0                0                
! Port Impedance         50               0                50               0                
13.6                           0.550593489538409 8.07311047602714 0.833774589482612 98.1047775487329 0.833774589482612 98.1047775487329 0.550593489538408 8.07311047602714 
! Gamma         0                0                0                0                
! Port Impedance         50               0                50               0                
13.62                          0.55102341469906 7.75271412247597 0.833491255358249 97.7839878941494 0.833491255358249 97.7839878941494 0.55102341469906 7.75271412247597 
! Gamma         0                0                0                0                
! Port Impedance         50               0                50               0                
13.64                          0.551435798069809 7.43253062407065 0.833219188193853 97.4634114056089 0.833219188193853 97.4634114056089 0.551435798069809 7.43253062407065 
! Gamma         0                0                0                0                
! Port Impedance         50               0                50               0                
13.66                          0.551830671743032 7.11255127363861 0.832958403670277 97.1430393413739 0.832958403670277 97.1430393413739 0.551830671743032 7.11255127363861 
! Gamma         0                0                0                0                
! Port Impedance         50               0                50               0                
13.68                          0.552208066499662 6.79276736034082 0.832708916734065 96.8228629562275 0.832708916734065 96.8228629562275 0.552208066499661 6.79276736034082 
! Gamma         0                0                0                0                
! Port Impedance         50               0                50               0                
13.7                           0.552568011804523 6.4731701699072  0.832470741606905 96.5028735016959 0.832470741606905 96.5028735016959 0.552568011804523 6.4731701699072  
! Gamma         0                0                0                0                
! Port Impedance         50               0                50               0                
13.72                          0.552910535801926 6.15375098486251 0.832243891794676 96.1830622262611 0.832243891794676 96.1830622262611 0.552910535801926 6.15375098486251 
! Gamma         0                0                0                0                
! Port Impedance         50               0                50               0                
13.74                          0.553235665311487 5.83450108474312 0.832028380096063 95.8634203755651 0.832028380096062 95.8634203755651 0.553235665311487 5.83450108474312 
! Gamma         0                0                0                0                
! Port Impedance         50               0                50               0                
13.76                          0.553543425824193 5.51541174630503 0.831824218610773 95.5439391926049 0.831824218610773 95.5439391926049 0.553543425824192 5.51541174630503 
! Gamma         0                0                0                0                
! Port Impedance         50               0                50               0                
13.78                          0.5538338414987  5.1964742437236  0.831631418747331 95.2246099179199 0.831631418747332 95.2246099179199 0.553833841498699 5.1964742437236  
! Gamma         0                0                0                0                
! Port Impedance         50               0                50               0                
13.8                           0.554106935157856 4.87767984878508 0.831449991230466 94.9054237897708 0.831449991230466 94.9054237897708 0.554106935157856 4.87767984878508 
! Gamma         0                0                0                0                
! Port Impedance         50               0                50               0                
13.82                          0.554362728285439 4.55901983107166 0.831279946108071 94.5863720443125 0.831279946108071 94.5863720443125 0.554362728285439 4.55901983107166 
! Gamma         0                0                0                0                
! Port Impedance         50               0                50               0                
13.84                          0.554601241023123 4.24048545813847 0.831121292757764 94.2674459157587 0.831121292757764 94.2674459157587 0.554601241023123 4.24048545813847 
! Gamma         0                0                0                0                
! Port Impedance         50               0                50               0                
13.86                          0.554822492167646 3.92206799568475 0.830974039893025 93.9486366365409 0.830974039893025 93.9486366365409 0.554822492167646 3.92206799568475 
! Gamma         0                0                0                0                
! Port Impedance         50               0                50               0                
13.88                          0.555026499168197 3.60375870771846 0.830838195568919 93.629935437461  0.830838195568919 93.629935437461  0.555026499168197 3.60375870771847 
! Gamma         0                0                0                0                
! Port Impedance         50               0                50               0                
13.9                           0.555213278123996 3.28554885671615 0.830713767187408 93.3113335478392 0.830713767187408 93.3113335478392 0.555213278123996 3.28554885671615 
! Gamma         0                0                0                0                
! Port Impedance         50               0                50               0                
13.92                          0.555382843782088 2.9674297037764  0.830600761502249 92.9928221956552 0.830600761502249 92.9928221956552 0.555382843782088 2.9674297037764  
! Gamma         0                0                0                0                
! Port Impedance         50               0                50               0                
13.94                          0.555535209535327 2.6493925087692  0.830499184623471 92.6743926076863 0.830499184623471 92.6743926076863 0.555535209535326 2.64939250876921 
! Gamma         0                0                0                0                
! Port Impedance         50               0                50               0                
13.96                          0.555670387420556 2.33142853048101 0.830409042021445 92.3560360096397 0.830409042021446 92.3560360096397 0.555670387420556 2.33142853048101 
! Gamma         0                0                0                0                
! Port Impedance         50               0                50               0                
13.98                          0.555788388116988 2.01352902675559 0.830330338530541 92.0377436262823 0.830330338530541 92.0377436262823 0.555788388116987 2.0135290267556  
! Gamma         0                0                0                0                
! Port Impedance         50               0                50               0                
14                             0.555889220944766 1.69568525463169 0.830263078352359 91.7195066815663 0.830263078352359 91.7195066815663 0.555889220944766 1.69568525463169 
! Gamma         0                0                0                0                
! Port Impedance         50               0                50               0                
14.02                          0.555972893863721 1.37788847047724 0.830207265058561 91.4013163987514 0.830207265058561 91.4013163987514 0.555972893863722 1.37788847047724 
! Gamma         0                0                0                0                
! Port Impedance         50               0                50               0                
14.04                          0.556039413472309 1.06012993012136 0.830162901593278 91.0831640005252 0.830162901593278 91.0831640005252 0.556039413472309 1.06012993012136 
! Gamma         0                0                0                0                
! Port Impedance         50               0                50               0                
14.06                          0.556088785006741 0.742400888983806 0.83012999027511 90.7650407091211 0.83012999027511 90.7650407091211 0.556088785006741 0.742400888983807 
! Gamma         0                0                0                0                
! Port Impedance         50               0                50               0                
14.08                          0.556121012340287 0.424692602202948 0.830108532798706 90.4469377464338 0.830108532798706 90.4469377464338 0.556121012340286 0.424692602202948 
! Gamma         0                0                0                0                
! Port Impedance         50               0                50               0                
14.1                           0.556136097982774 0.106996324762129 0.830098530235933 90.1288463341347 0.830098530235933 90.1288463341347 0.556136097982774 0.106996324762129 
! Gamma         0                0                0                0                
! Port Impedance         50               0                50               0                
14.12                          0.55613404308026 -0.210696688384859 0.830099983036636 89.8107576937846 0.830099983036636 89.8107576937846 0.55613404308026 -0.210696688384859 
! Gamma         0                0                0                0                
! Port Impedance         50               0                50               0                
14.14                          0.556114847414885 -0.528395182188393 0.830112891028971 89.4926630469482 0.830112891028971 89.4926630469482 0.556114847414885 -0.528395182188392 
! Gamma         0                0                0                0                
! Port Impedance         50               0                50               0                
14.16                          0.556078509404914 -0.84610790137852 0.830137253419341 89.1745536153056 0.830137253419341 89.1745536153056 0.556078509404915 -0.84610790137852 
! Gamma         0                0                0                0                
! Port Impedance         50               0                50               0                
14.18                          0.556025026104953 -1.16384359033927 0.830173068791902 88.8564206207667 0.830173068791902 88.8564206207667 0.556025026104953 -1.16384359033927 
! Gamma         0                0                0                0                
! Port Impedance         50               0                50               0                
14.2                           0.555954393206349 -1.48161099298292 0.830220335107671 88.5382552855848 0.83022033510767 88.5382552855848 0.555954393206349 -1.48161099298292 
! Gamma         0                0                0                0                
! Port Impedance         50               0                50               0                
14.22                          0.555866605037776 -1.79941885262237 0.830279049703202 88.2200488324717 0.830279049703202 88.2200488324717 0.555866605037776 -1.79941885262237 
! Gamma         0                0                0                0                
! Port Impedance         50               0                50               0                
14.24                          0.555761654565995 -2.11727591184246 0.830349209288865 87.9017924847146 0.830349209288865 87.9017924847146 0.555761654565996 -2.11727591184246 
! Gamma         0                0                0                0                
! Port Impedance         50               0                50               0                
14.26                          0.555639533396812 -2.43519091236905 0.830430809946704 87.5834774662943 0.830430809946704 87.5834774662943 0.555639533396812 -2.43519091236905 
! Gamma         0                0                0                0                
! Port Impedance         50               0                50               0                
14.28                          0.555500231776206 -2.75317259493538 0.830523847127877 87.2650950020066 0.830523847127877 87.2650950020066 0.555500231776206 -2.75317259493538 
! Gamma         0                0                0                0                
! Port Impedance         50               0                50               0                
14.3                           0.555343738591655 -3.07122969914597 0.83062831564969 86.946636317586  0.830628315649689 86.946636317586  0.555343738591655 -3.07122969914597 
! Gamma         0                0                0                0                
! Port Impedance         50               0                50               0                
14.32                          0.555170041373652 -3.38937096333692 0.830744209692209 86.6280926398324 0.830744209692209 86.6280926398324 0.555170041373651 -3.38937096333692 
! Gamma         0                0                0                0                
! Port Impedance         50               0                50               0                
14.34                          0.554979126297401 -3.7076051244324 0.830871522794467 86.3094551967421 0.830871522794467 86.3094551967421 0.554979126297401 -3.70760512443241 
! Gamma         0                0                0                0                
! Port Impedance         50               0                50               0                
14.36                          0.554770978184721 -4.02594091779709 0.831010247850251 85.9907152176424 0.831010247850251 85.9907152176424 0.554770978184722 -4.02594091779709 
! Gamma         0                0                0                0                
! Port Impedance         50               0                50               0                
14.38                          0.554545580506136 -4.34438707708393 0.831160377103473 85.6718639333304 0.831160377103473 85.6718639333304 0.554545580506137 -4.34438707708392 
! Gamma         0                0                0                0                
! Port Impedance         50               0                50               0                
14.4                           0.554302915383169 -4.66295233407698 0.831321902143133 85.3528925762173 0.831321902143133 85.3528925762173 0.554302915383169 -4.66295233407698 
! Gamma         0                0                0                0                
! Port Impedance         50               0                50               0                
14.42                          0.554042963590838 -4.98164541852831 0.831494813897862 85.0337923804779 0.831494813897862 85.0337923804779 0.554042963590838 -4.98164541852831 
! Gamma         0                0                0                0                
! Port Impedance         50               0                50               0                
14.44                          0.553765704560361 -5.30047505798964 0.831679102630059 84.7145545822052 0.831679102630058 84.7145545822052 0.55376570456036 -5.30047505798965 
! Gamma         0                0                0                0                
! Port Impedance         50               0                50               0                
14.46                          0.553471116382062 -5.61944997763719 0.831874757929599 84.3951704195721 0.831874757929599 84.3951704195721 0.553471116382062 -5.61944997763719 
! Gamma         0                0                0                0                
! Port Impedance         50               0                50               0                
14.48                          0.553159175808505 -5.93857890008963 0.832081768707148 84.075631132999  0.832081768707148 84.075631132999  0.553159175808505 -5.93857890008962 
! Gamma         0                0                0                0                
! Port Impedance         50               0                50               0                
14.5                           0.552829858257836 -6.25787054521906 0.832300123187042 83.7559279653289 0.832300123187042 83.7559279653289 0.552829858257836 -6.25787054521906 
! Gamma         0                0                0                0                
! Port Impedance         50               0                50               0                
14.52                          0.552483137817347 -6.57733362995417 0.83252980889977 83.4360521620095 0.83252980889977 83.4360521620095 0.552483137817347 -6.57733362995417 
! Gamma         0                0                0                0                
! Port Impedance         50               0                50               0                
14.54                          0.55211898724728 -6.89697686807549 0.832770812674029 83.1159949712835 0.832770812674028 83.1159949712835 0.55211898724728 -6.89697686807549 
! Gamma         0                0                0                0                
! Port Impedance         50               0                50               0                
14.56                          0.551737377984849 -7.2168089700015 0.833023120628373 82.7957476443873 0.833023120628373 82.7957476443873 0.551737377984849 -7.2168089700015 
! Gamma         0                0                0                0                
! Port Impedance         50               0                50               0                
14.58                          0.551338280148513 -7.53683864256626 0.833286718162452 82.4753014357582 0.833286718162452 82.4753014357582 0.551338280148513 -7.53683864256626 
! Gamma         0                0                0                0                
! Port Impedance         50               0                50               0                
14.6                           0.550921662542484 -7.85707458878747 0.833561589947823 82.1546476032507 0.833561589947823 82.1546476032507 0.550921662542484 -7.85707458878748 
! Gamma         0                0                0                0                
! Port Impedance         50               0                50               0                
14.62                          0.550487492661491 -8.17752550762411 0.833847719918366 81.8337774083633 0.833847719918366 81.8337774083633 0.550487492661491 -8.17752550762411 
! Gamma         0                0                0                0                
! Port Impedance         50               0                50               0                
14.64                          0.550035736695799 -8.49820009372436 0.834145091260271 81.5126821164743 0.834145091260271 81.5126821164743 0.550035736695798 -8.49820009372437 
! Gamma         0                0                0                0                
! Port Impedance         50               0                50               0                
14.66                          0.54956635953649 -8.81910703716209 0.834453686401623 81.1913529970886 0.834453686401623 81.1913529970886 0.54956635953649 -8.81910703716209 
! Gamma         0                0                0                0                
! Port Impedance         50               0                50               0                
14.68                          0.549079324781014 -9.14025502316253 0.834773487001567 80.8697813240959 0.834773487001567 80.8697813240959 0.549079324781014 -9.14025502316253 
! Gamma         0                0                0                0                
! Port Impedance         50               0                50               0                
14.7                           0.548574594739018 -9.4616527318155 0.835104473939074 80.5479583760394 0.835104473939073 80.5479583760394 0.548574594739019 -9.46165273181549 
! Gamma         0                0                0                0                
! Port Impedance         50               0                50               0                
14.72                          0.54805213043846 -9.78330883777715 0.835446627301274 80.2258754363974 0.835446627301274 80.2258754363974 0.548052130438461 -9.78330883777715 
! Gamma         0                0                0                0                
! Port Impedance         50               0                50               0                
14.74                          0.54751189163201 -10.1052320099583 0.835799926371405 79.9035237938766 0.835799926371405 79.9035237938766 0.547511891632011 -10.1052320099583 
! Gamma         0                0                0                0                
! Port Impedance         50               0                50               0                
14.76                          0.546953836803757 -10.4274309112   0.836164349616328 79.5808947427184 0.836164349616328 79.5808947427184 0.546953836803757 -10.4274309112   
! Gamma         0                0                0                0                
! Port Impedance         50               0                50               0                
14.78                          0.54637792317622 -10.7499141979351 0.836539874673648 79.2579795830183 0.836539874673648 79.2579795830183 0.546377923176219 -10.7499141979351 
! Gamma         0                0                0                0                
! Port Impedance         50               0                50               0                
14.8                           0.545784106717675 -11.0726905198359 0.836926478338421 78.9347696210595 0.836926478338421 78.9347696210595 0.545784106717675 -11.0726905198359 
! Gamma         0                0                0                0                
! Port Impedance         50               0                50               0                
14.82                          0.545172342149815 -11.3957685194468 0.837324136549456 78.6112561696604 0.837324136549456 78.6112561696604 0.545172342149816 -11.3957685194468 
! Gamma         0                0                0                0                
! Port Impedance         50               0                50               0                
14.84                          0.544542582955729 -11.7191568318027 0.837732824375209 78.2874305485363 0.837732824375209 78.2874305485363 0.544542582955729 -11.7191568318027 
! Gamma         0                0                0                0                
! Port Impedance         50               0                50               0                
14.86                          0.543894781388242 -12.0428640840301 0.838152515999271 77.9632840846773 0.838152515999271 77.9632840846773 0.543894781388241 -12.0428640840301 
! Gamma         0                0                0                0                
! Port Impedance         50               0                50               0                
14.88                          0.54322888847859 -12.3668988949344 0.838583184705457 77.6388081127405 0.838583184705457 77.6388081127405 0.54322888847859 -12.3668988949344 
! Gamma         0                0                0                0                
! Port Impedance         50               0                50               0                
14.9                           0.542544854045481 -12.691269874568 0.839024802862491 77.3139939754597 0.83902480286249 77.3139939754597 0.542544854045481 -12.691269874568 
! Gamma         0                0                0                0                
! Port Impedance         50               0                50               0                
14.92                          0.5418426267045  -13.0159856237832 0.839477341908285 76.9888330240704 0.839477341908285 76.9888330240704 0.5418426267045  -13.0159856237832 
! Gamma         0                0                0                0                
! Port Impedance         50               0                50               0                
14.94                          0.541122153877924 -13.3410547337668 0.83994077233383 76.6633166187529 0.839940772333831 76.6633166187529 0.541122153877925 -13.3410547337668 
! Gamma         0                0                0                0                
! Port Impedance         50               0                50               0                
14.96                          0.540383381804918 -13.6664857855567 0.840415063666685 76.3374361290917 0.840415063666685 76.3374361290917 0.540383381804918 -13.6664857855567 
! Gamma         0                0                0                0                
! Port Impedance         50               0                50               0                
14.98                          0.539626255552132 -13.9922873495393 0.840900184454064 76.0111829345543 0.840900184454064 76.0111829345543 0.539626255552132 -13.9922873495393 
! Gamma         0                0                0                0                
! Port Impedance         50               0                50               0                
15                             0.538850719024727 -14.3184679849289 0.841396102245548 75.6845484249874 0.841396102245548 75.6845484249874 0.538850719024727 -14.3184679849289 
! Gamma         0                0                0                0                
! Port Impedance         50               0                50               0                
15.02                          0.538056714977821 -14.6450362392262 0.841902783575395 75.3575240011324 0.841902783575395 75.3575240011324 0.538056714977821 -14.6450362392262 
! Gamma         0                0                0                0                
! Port Impedance         50               0                50               0                
15.04                          0.537244185028372 -14.9720006476573 0.842420193944462 75.0301010751612 0.842420193944462 75.0301010751612 0.537244185028372 -14.9720006476573 
! Gamma         0                0                0                0                
! Port Impedance         50               0                50               0                
15.06                          0.536413069667521 -15.2993697325921 0.842948297801754 74.7022710712301 0.842948297801754 74.7022710712301 0.536413069667521 -15.2993697325921 
! Gamma         0                0                0                0                
! Port Impedance         50               0                50               0                
15.08                          0.535563308273387 -15.6271520029409 0.843487058525582 74.3740254260562 0.843487058525582 74.3740254260562 0.535563308273387 -15.6271520029409 
! Gamma         0                0                0                0                
! Port Impedance         50               0                50               0                
15.1                           0.534694839124352 -15.9553559535302 0.844036438404351 74.0453555895133 0.844036438404351 74.0453555895133 0.534694839124351 -15.9553559535302 
! Gamma         0                0                0                0                
! Port Impedance         50               0                50               0                
15.12                          0.533807599412823 -16.2839900644544 0.844596398616968 73.7162530252503 0.844596398616967 73.7162530252503 0.533807599412824 -16.2839900644544 
! Gamma         0                0                0                0                
! Port Impedance         50               0                50               0                
15.14                          0.532901525259507 -16.6130628004074 0.845166899212888 73.3867092113301 0.845166899212888 73.3867092113301 0.532901525259507 -16.6130628004074 
! Gamma         0                0                0                0                
! Port Impedance         50               0                50               0                
15.16                          0.531976551728186 -16.9425826099885 0.845747899091788 73.0567156408929 0.845747899091788 73.0567156408929 0.531976551728186 -16.9425826099885 
! Gamma         0                0                0                0                
! Port Impedance         50               0                50               0                
15.18                          0.531032612841042 -17.2725579249851 0.846339355982887 72.7262638228407 0.846339355982887 72.7262638228407 0.531032612841041 -17.2725579249851 
! Gamma         0                0                0                0                
! Port Impedance         50               0                50               0                
15.2                           0.5300696415945  -17.602997159632 0.846941226423902 72.395345282546  0.846941226423902 72.395345282546  0.5300696415945  -17.602997159632 
! Gamma         0                0                0                0                
! Port Impedance         50               0                50               0                
15.22                          0.529087569975654 -17.9339087098439 0.847553465739663 72.063951562585  0.847553465739663 72.063951562585  0.529087569975654 -17.9339087098439 
! Gamma         0                0                0                0                
! Port Impedance         50               0                50               0                
15.24                          0.52808632897924 -18.2653009524246 0.848176028020375 71.7320742234934 0.848176028020375 71.7320742234934 0.52808632897924 -18.2653009524246 
! Gamma         0                0                0                0                
! Port Impedance         50               0                50               0                
15.26                          0.52706584862521 -18.5971822442475 0.848808866099542 71.3997048445496 0.848808866099542 71.3997048445496 0.527065848625209 -18.5971822442475 
! Gamma         0                0                0                0                
! Port Impedance         50               0                50               0                
15.28                          0.526026057976899 -18.9295609214126 0.849451931531566 71.0668350245812 0.849451931531566 71.0668350245812 0.526026057976899 -18.9295609214126 
! Gamma         0                0                0                0                
! Port Impedance         50               0                50               0                
15.3                           0.524966885159811 -19.2624452983736 0.850105174569007 70.7334563827986 0.850105174569007 70.7334563827986 0.52496688515981 -19.2624452983736 
! Gamma         0                0                0                0                
! Port Impedance         50               0                50               0                
15.32                          0.523888257381024 -19.5958436670391 0.85076854413953 70.3995605596545 0.85076854413953 70.3995605596545 0.523888257381024 -19.5958436670391 
! Gamma         0                0                0                0                
! Port Impedance         50               0                50               0                
15.34                          0.522790100949258 -19.9297642958448 0.851441987822542 70.065139217731  0.851441987822542 70.0651392177309 0.522790100949258 -19.9297642958448 
! Gamma         0                0                0                0                
! Port Impedance         50               0                50               0                
15.36                          0.521672341295591 -20.2642154287973 0.852125451825523 69.7301840426527 0.852125451825523 69.7301840426527 0.521672341295591 -20.2642154287973 
! Gamma         0                0                0                0                
! Port Impedance         50               0                50               0                
15.38                          0.520534902994848 -20.5992052844884 0.852818880960056 69.3946867440296 0.852818880960056 69.3946867440296 0.520534902994848 -20.5992052844884 
! Gamma         0                0                0                0                
! Port Impedance         50               0                50               0                
15.4                           0.519377709787694 -20.9347420550795 0.853522218617574 69.0586390564268 0.853522218617574 69.0586390564268 0.519377709787694 -20.9347420550795 
! Gamma         0                0                0                0                
! Port Impedance         50               0                50               0                
15.42                          0.518200684603426 -21.2708339052561 0.854235406744831 68.7220327403634 0.854235406744831 68.7220327403634 0.518200684603426 -21.2708339052561 
! Gamma         0                0                0                0                
! Port Impedance         50               0                50               0                
15.44                          0.51700374958349 -21.6074889711505 0.854958385819097 68.3848595833417 0.854958385819097 68.3848595833417 0.51700374958349 -21.6074889711505 
! Gamma         0                0                0                0                
! Port Impedance         50               0                50               0                
15.46                          0.515786826105741 -21.9447153592338 0.855691094823103 68.0471114009048 0.855691094823103 68.0471114009048 0.515786826105742 -21.9447153592338 
! Gamma         0                0                0                0                
! Port Impedance         50               0                50               0                
15.48                          0.514549834809455 -22.2825211451758 0.85643347121973 67.7087800377253 0.85643347121973 67.7087800377253 0.514549834809455 -22.2825211451757 
! Gamma         0                0                0                0                
! Port Impedance         50               0                50               0                
15.5                           0.513292695621117 -22.6209143726716 0.857185450926466 67.3698573687247 0.857185450926466 67.3698573687247 0.513292695621117 -22.6209143726716 
! Gamma         0                0                0                0                
! Port Impedance         50               0                50               0                
15.52                          0.512015327780994 -22.9599030522367 0.857946968289638 67.0303353002238 0.857946968289638 67.0303353002238 0.512015327780993 -22.9599030522367 
! Gamma         0                0                0                0                
! Port Impedance         50               0                50               0                
15.54                          0.510717649870521 -23.299495159966 0.858717956058426 66.6902057711247 0.858717956058426 66.6902057711247 0.510717649870521 -23.299495159966 
! Gamma         0                0                0                0                
! Port Impedance         50               0                50               0                
15.56                          0.509399579840502 -23.6396986362618 0.859498345358686 66.349460754125  0.859498345358686 66.349460754125  0.509399579840502 -23.6396986362618 
! Gamma         0                0                0                0                
! Port Impedance         50               0                50               0                
15.58                          0.50806103504015 -23.9805213845241 0.860288065666576 66.0080922569645 0.860288065666576 66.0080922569645 0.508061035040149 -23.9805213845241 
! Gamma         0                0                0                0                
! Port Impedance         50               0                50               0                
15.6                           0.506701932246988 -24.321971269808 0.861087044782017 65.666092323705  0.861087044782017 65.666092323705  0.506701932246988 -24.321971269808 
! Gamma         0                0                0                0                
! Port Impedance         50               0                50               0                
15.62                          0.505322187697616 -24.664056117444 0.861895208801997 65.3234530360429 0.861895208801997 65.3234530360429 0.505322187697616 -24.664056117444 
! Gamma         0                0                0                0                
! Port Impedance         50               0                50               0                
15.64                          0.503921717119373 -25.0067837116227 0.862712482093723 64.9801665146564 0.862712482093723 64.9801665146564 0.503921717119373 -25.0067837116227 
! Gamma         0                0                0                0                
! Port Impedance         50               0                50               0                
15.66                          0.502500435762896 -25.3501617939428 0.863538787267659 64.6362249205859 0.863538787267659 64.6362249205859 0.502500435762896 -25.3501617939428 
! Gamma         0                0                0                0                
! Port Impedance         50               0                50               0                
15.68                          0.501058258435609 -25.6941980619214 0.864374045150443 64.2916204566499 0.864374045150443 64.2916204566499 0.501058258435609 -25.6941980619214 
! Gamma         0                0                0                0                
! Port Impedance         50               0                50               0                
15.7                           0.499595099536145 -26.0389001674676 0.865218174757722 63.9463453688951 0.865218174757722 63.9463453688951 0.499595099536146 -26.0389001674675 
! Gamma         0                0                0                0                
! Port Impedance         50               0                50               0                
15.72                          0.498110873089726 -26.3842757153162 0.866071093266906 63.6003919480822 0.866071093266906 63.6003919480822 0.498110873089726 -26.3842757153162 
! Gamma         0                0                0                0                
! Port Impedance         50               0                50               0                
15.74                          0.496605492784505 -26.7303322614249 0.866932715989864 63.2537525312067 0.866932715989864 63.2537525312067 0.496605492784505 -26.7303322614249 
! Gamma         0                0                0                0                
! Port Impedance         50               0                50               0                
15.76                          0.495078872008912 -27.0770773113307 0.867802956345596 62.9064195030565 0.867802956345596 62.9064195030565 0.495078872008913 -27.0770773113307 
! Gamma         0                0                0                0                
! Port Impedance         50               0                50               0                
15.78                          0.493530923889988 -27.4245183184668 0.868681725832876 62.5583852978054 0.868681725832876 62.5583852978054 0.493530923889987 -27.4245183184668 
! Gamma         0                0                0                0                
! Port Impedance         50               0                50               0                
15.8                           0.491961561332731 -27.7726626824412 0.869568934002908 62.2096424006423 0.869568934002908 62.2096424006423 0.491961561332731 -27.7726626824412 
! Gamma         0                0                0                0                
! Port Impedance         50               0                50               0                
15.82                          0.490370697060506 -28.1215177472718 0.870464488432011 61.8601833494389 0.870464488432011 61.8601833494389 0.490370697060506 -28.1215177472718 
! Gamma         0                0                0                0                
! Port Impedance         50               0                50               0                
15.84                          0.488758243656462 -28.471090799584 0.871368294694347 61.5100007364529 0.871368294694347 61.5100007364529 0.488758243656462 -28.471090799584 
! Gamma         0                0                0                0                
! Port Impedance         50               0                50               0                
15.86                          0.48712411360605 -28.8213890667638 0.872280256334729 61.1590872100695 0.872280256334729 61.1590872100695 0.48712411360605 -28.8213890667638 
! Gamma         0                0                0                0                
! Port Impedance         50               0                50               0                
15.88                          0.485468219340592 -29.1724197150715 0.873200274841525 60.8074354765796 0.873200274841525 60.8074354765796 0.485468219340592 -29.1724197150715 
! Gamma         0                0                0                0                
! Port Impedance         50               0                50               0                
15.9                           0.483790473281956 -29.5241898477121 0.874128249619688 60.4550383019968 0.874128249619688 60.4550383019968 0.483790473281957 -29.5241898477121 
! Gamma         0                0                0                0                
! Port Impedance         50               0                50               0                
15.92                          0.482090787888335 -29.8767065028632 0.875064077963928 60.1018885139114 0.875064077963928 60.1018885139114 0.482090787888335 -29.8767065028632 
! Gamma         0                0                0                0                
! Port Impedance         50               0                50               0                
15.94                          0.480369075701136 -30.2299766516605 0.87600765503207 59.7479790033825 0.87600765503207 59.7479790033825 0.480369075701136 -30.2299766516605 
! Gamma         0                0                0                0                
! Port Impedance         50               0                50               0                
15.96                          0.478625249393012 -30.5840071961398 0.876958873818608 59.3933027268689 0.876958873818608 59.3933027268689 0.478625249393012 -30.5840071961398 
! Gamma         0                0                0                0                
! Port Impedance         50               0                50               0                
15.98                          0.476859221817029 -30.938804967135 0.8779176251285  59.0378527081975 0.877917625128499 59.0378527081975 0.476859221817029 -30.938804967135 
! Gamma         0                0                0                0                
! Port Impedance         50               0                50               0                
16                             0.475070906056993 -31.2943767221328 0.878883797551215 58.6816220405702 0.878883797551215 58.6816220405703 0.475070906056993 -31.2943767221328 
! Gamma         0                0                0                0                
! Port Impedance         50               0                50               0                
16.02                          0.47326021547894 -31.6507291430826 0.879857277435084 58.3246038886099 0.879857277435084 58.3246038886099 0.473260215478939 -31.6507291430826 
! Gamma         0                0                0                0                
! Port Impedance         50               0                50               0                
16.04                          0.471427063783801 -32.0078688341626 0.880837948861969 57.9667914904432 0.880837948861969 57.9667914904432 0.471427063783801 -32.0078688341626 
! Gamma         0                0                0                0                
! Port Impedance         50               0                50               0                
16.06                          0.469571365061261 -32.3658023194997 0.881825693622289 57.6081781598234 0.881825693622289 57.6081781598234 0.469571365061261 -32.3658023194997 
! Gamma         0                0                0                0                
! Port Impedance         50               0                50               0                
16.08                          0.467693033844802 -32.7245360408461 0.882820391190437 57.24875728829   0.882820391190438 57.24875728829   0.467693033844802 -32.7245360408461 
! Gamma         0                0                0                0                
! Port Impedance         50               0                50               0                
16.1                           0.465791985167957 -33.0840763552088 0.883821918700626 56.8885223473675 0.883821918700625 56.8885223473675 0.465791985167958 -33.0840763552088 
! Gamma         0                0                0                0                
! Port Impedance         50               0                50               0                
16.12                          0.463868134621771 -33.4444295324345 0.884830150923182 56.5274668908019 0.884830150923182 56.5274668908019 0.463868134621772 -33.4444295324345 
! Gamma         0                0                0                0                
! Port Impedance         50               0                50               0                
16.14                          0.461921398413477 -33.8056017527487 0.88584496024135 56.1655845568344 0.88584496024135 56.1655845568344 0.461921398413477 -33.8056017527487 
! Gamma         0                0                0                0                
! Port Impedance         50               0                50               0                
16.16                          0.459951693426398 -34.1675991042479 0.886866216628613 55.8028690705141 0.886866216628613 55.8028690705141 0.459951693426397 -34.1675991042479 
! Gamma         0                0                0                0                
! Port Impedance         50               0                50               0                
16.18                          0.457958937281072 -34.5304275803464 0.887893787626598 55.4393142460466 0.887893787626599 55.4393142460466 0.457958937281072 -34.5304275803464 
! Gamma         0                0                0                0                
! Port Impedance         50               0                50               0                
16.2                           0.455943048397609 -34.8940930771764 0.888927538323581 55.0749139891807 0.888927538323581 55.0749139891807 0.455943048397609 -34.8940930771764 
! Gamma         0                0                0                0                
! Port Impedance         50               0                50               0                
16.22                          0.45390394605928 -35.2586013909416 0.889967331333645 54.7096622996311 0.889967331333645 54.7096622996311 0.45390394605928 -35.2586013909416 
! Gamma         0                0                0                0                
! Port Impedance         50               0                50               0                
16.24                          0.451841550477333 -35.6239582152233 0.891013026776524 54.3435532735383 0.891013026776524 54.3435532735383 0.451841550477332 -35.6239582152233 
! Gamma         0                0                0                0                
! Port Impedance         50               0                50               0                
16.26                          0.449755782857053 -35.9901691382411 0.892064482258184 53.9765811059639 0.892064482258184 53.9765811059639 0.449755782857053 -35.9901691382411 
! Gamma         0                0                0                0                
! Port Impedance         50               0                50               0                
16.28                          0.447646565465046 -36.357239640065 0.89312155285217 53.608740093421  0.89312155285217 53.6087400934209 0.447646565465046 -36.3572396400651 
! Gamma         0                0                0                0                
! Port Impedance         50               0                50               0                
16.3                           0.445513821697754 -36.7251750897817 0.894184091081774 53.2400246364402 0.894184091081774 53.2400246364403 0.445513821697754 -36.7251750897817 
! Gamma         0                0                0                0                
! Port Impedance         50               0                50               0                
16.32                          0.443357476151194 -37.0939807426124 0.895251946903066 52.87042924217   0.895251946903066 52.87042924217   0.443357476151194 -37.0939807426124 
! Gamma         0                0                0                0                
! Port Impedance         50               0                50               0                
16.34                          0.44117745469192 -37.4636617369843 0.896324967688822 52.4999485270099 0.896324967688822 52.4999485270099 0.44117745469192 -37.4636617369843 
! Gamma         0                0                0                0                
! Port Impedance         50               0                50               0                
16.36                          0.438973684529193 -37.8342230915546 0.897402998213413 52.1285772192775 0.897402998213413 52.1285772192775 0.438973684529193 -37.8342230915546 
! Gamma         0                0                0                0                
! Port Impedance         50               0                50               0                
16.38                          0.43674609428836 -38.2056697021856 0.898485880638687 51.7563101619077 0.898485880638686 51.7563101619077 0.43674609428836 -38.2056697021856 
! Gamma         0                0                0                0                
! Port Impedance         50               0                50               0                
16.4                           0.434494614085421 -38.5780063388747 0.899573454500894 51.3831423151831 0.899573454500894 51.3831423151831 0.434494614085421 -38.5780063388747 
! Gamma         0                0                0                0                
! Port Impedance         50               0                50               0                
16.42                          0.432219175602784 -38.9512376426337 0.90066555669871 51.0090687594948 0.90066555669871 51.0090687594948 0.432219175602784 -38.9512376426337 
! Gamma         0                0                0                0                
! Port Impedance         50               0                50               0                
16.44                          0.429919712166185 -39.3253681223233 0.901762021482401 50.6340846981341 0.901762021482401 50.6340846981341 0.429919712166185 -39.3253681223233 
! Gamma         0                0                0                0                
! Port Impedance         50               0                50               0                
16.46                          0.427596158822763 -39.7004021514371 0.902862680444172 50.2581854601111 0.902862680444171 50.2581854601111 0.427596158822763 -39.7004021514371 
! Gamma         0                0                0                0                
! Port Impedance         50               0                50               0                
16.48                          0.425248452420268 -40.0763439648397 0.903967362509765 49.8813665030023 0.903967362509765 49.8813665030023 0.425248452420267 -40.0763439648397 
! Gamma         0                0                0                0                
! Port Impedance         50               0                50               0                
16.5                           0.422876531687389 -40.4531976554553 0.905075893931345 49.5036234158249 0.905075893931345 49.5036234158249 0.422876531687389 -40.4531976554553 
! Gamma         0                0                0                0                
! Port Impedance         50               0                50               0                
16.52                          0.420480337315181 -40.8309671709086 0.906188098281734 49.1249519219351 0.906188098281734 49.1249519219351 0.420480337315181 -40.8309671709086 
! Gamma         0                0                0                0                
! Port Impedance         50               0                50               0                
16.54                          0.418059812039554 -41.2096563101172 0.907303796450024 48.7453478819521 0.907303796450024 48.7453478819521 0.418059812039554 -41.2096563101172 
! Gamma         0                0                0                0                
! Port Impedance         50               0                50               0                
16.56                          0.415614900724818 -41.5892687198355 0.908422806638656 48.3648072967039 0.908422806638656 48.3648072967039 0.415614900724818 -41.5892687198355 
! Gamma         0                0                0                0                
! Port Impedance         50               0                50               0                
16.58                          0.413145550448251 -41.9698078911494 0.909544944361985 47.9833263101951 0.909544944361985 47.9833263101951 0.413145550448251 -41.9698078911494 
! Gamma         0                0                0                0                
! Port Impedance         50               0                50               0                
16.6                           0.410651710585645 -42.3512771559221 0.910670022446399 47.6009012125949 0.910670022446399 47.6009012125949 0.410651710585645 -42.351277155922 
! Gamma         0                0                0                0                
! Port Impedance         50               0                50               0                
16.62                          0.408133332897825 -42.73367968319  0.911797851032041 47.2175284432428 0.911797851032041 47.2175284432428 0.408133332897825 -42.73367968319  
! Gamma         0                0                0                0                
! Port Impedance         50               0                50               0                
16.64                          0.405590371618081 -43.1170184755098 0.912928237576193 46.8332045936719 0.912928237576193 46.8332045936719 0.405590371618081 -43.1170184755098 
! Gamma         0                0                0                0                
! Port Impedance         50               0                50               0                
16.66                          0.403022783540497 -43.5012963652535 0.914060986858363 46.4479264106474 0.914060986858363 46.4479264106474 0.403022783540497 -43.5012963652534 
! Gamma         0                0                0                0                
! Port Impedance         50               0                50               0                
16.68                          0.400430528109123 -43.8865160108533 0.915195900987141 46.0616907992184 0.915195900987141 46.0616907992184 0.400430528109123 -43.8865160108533 
! Gamma         0                0                0                0                
! Port Impedance         50               0                50               0                
16.7                           0.397813567507958 -44.2726798929958 0.916332779408871 45.6744948257813 0.916332779408872 45.6744948257813 0.397813567507958 -44.2726798929958 
! Gamma         0                0                0                0                
! Port Impedance         50               0                50               0                
16.72                          0.395171866751695 -44.6597903107613 0.917471418918189 45.2863357211538 0.917471418918189 45.2863357211538 0.395171866751695 -44.6597903107613 
! Gamma         0                0                0                0                
! Port Impedance         50               0                50               0                
16.74                          0.392505393777185 -45.047849377713 0.918611613670489 44.897210883655  0.918611613670489 44.897210883655  0.392505393777185 -45.047849377713 
! Gamma         0                0                0                0                
! Port Impedance         50               0                50               0                
16.76                          0.389814119535571 -45.4368590179281 0.919753155196359 44.5071178821942 0.919753155196359 44.5071178821942 0.389814119535571 -45.4368590179281 
! Gamma         0                0                0                0                
! Port Impedance         50               0                50               0                
16.78                          0.387098018085032 -45.8268209619766 0.920895832418052 44.1160544593599 0.920895832418052 44.1160544593599 0.387098018085032 -45.8268209619766 
! Gamma         0                0                0                0                
! Port Impedance         50               0                50               0                
16.8                           0.3843570666841  -46.2177367428409 0.922039431668027 43.7240185345133 0.922039431668027 43.7240185345133 0.3843570666841  -46.2177367428409 
! Gamma         0                0                0                0                
! Port Impedance         50               0                50               0                
16.82                          0.381591245885474 -46.6096076917771 0.923183736709628 43.3310082068794 0.923183736709628 43.3310082068794 0.381591245885473 -46.6096076917772 
! Gamma         0                0                0                0                
! Port Impedance         50               0                50               0                
16.84                          0.37880053963028 -47.0024349341169 0.92432852875994 42.9370217586351 0.92432852875994 42.9370217586352 0.378800539630279 -47.0024349341169 
! Gamma         0                0                0                0                
! Port Impedance         50               0                50               0                
16.86                          0.375984935342721 -47.3962193850043 0.925473586514879 42.5420576579928 0.925473586514879 42.5420576579928 0.375984935342721 -47.3962193850043 
! Gamma         0                0                0                0                
! Port Impedance         50               0                50               0                
16.88                          0.373144424025042 -47.7909617450699 0.926618686176555 42.1461145622745 0.926618686176556 42.1461145622745 0.373144424025042 -47.7909617450699 
! Gamma         0                0                0                0                
! Port Impedance         50               0                50               0                
16.9                           0.370279000352739 -48.1866624960348 0.927763601482975 41.7491913209764 0.927763601482975 41.7491913209764 0.370279000352739 -48.1866624960348 
! Gamma         0                0                0                0                
! Port Impedance         50               0                50               0                
16.92                          0.367388662769959 -48.583321896245 0.928908103740102 41.3512869788198 0.928908103740102 41.3512869788198 0.367388662769959 -48.583321896245 
! Gamma         0                0                0                0                
! Port Impedance         50               0                50               0                
16.94                          0.36447341358499 -48.9809399761304 0.930051961856352 40.9524007787857 0.930051961856352 40.9524007787857 0.36447341358499 -48.9809399761304 
! Gamma         0                0                0                0                
! Port Impedance         50               0                50               0                
16.96                          0.361533259065803 -49.3795165335846 0.931194942379545 40.5525321651316 0.931194942379545 40.5525321651316 0.361533259065804 -49.3795165335845 
! Gamma         0                0                0                0                
! Port Impedance         50               0                50               0                
16.98                          0.358568209535519 -49.7790511292619 0.93233680953636 40.1516807863852 0.93233680953636 40.1516807863852 0.358568209535519 -49.7790511292619 
! Gamma         0                0                0                0                
! Port Impedance         50               0                50               0                
17                             0.355578279467761 -50.1795430817859 0.933477325274347 39.7498464983148 0.933477325274348 39.7498464983148 0.355578279467761 -50.1795430817859 
! Gamma         0                0                0                0                
! Port Impedance         50               0                50               0                
17.02                          0.352563487581788 -50.5809914628627 0.934616249306519 39.347029366871  0.934616249306519 39.347029366871  0.352563487581788 -50.5809914628627 
! Gamma         0                0                0                0                
! Port Impedance         50               0                50               0                
17.04                          0.349523856937317 -50.983395092294 0.935753339158564 38.9432296710987 0.935753339158564 38.9432296710987 0.349523856937317 -50.983395092294 
! Gamma         0                0                0                0                
! Port Impedance         50               0                50               0                
17.06                          0.346459415028964 -51.3867525328814 0.936888350218731 38.5384479060143 0.936888350218731 38.5384479060142 0.346459415028964 -51.3867525328814 
! Gamma         0                0                0                0                
! Port Impedance         50               0                50               0                
17.08                          0.343370193880184 -51.7910620852145 0.938021035790393 38.132684785446  0.938021035790393 38.132684785446  0.343370193880183 -51.7910620852145 
! Gamma         0                0                0                0                
! Port Impedance         50               0                50               0                
17.1                           0.340256230136639 -52.1963217823323 0.939151147147347 37.7259412448346 0.939151147147346 37.7259412448346 0.340256230136639 -52.1963217823323 
! Gamma         0                0                0                0                
! Port Impedance         50               0                50               0                
17.12                          0.33711756515889 -52.602529384249 0.940278433591853 37.318218443989  0.940278433591853 37.318218443989  0.33711756515889 -52.602529384249 
! Gamma         0                0                0                0                
! Port Impedance         50               0                50               0                
17.14                          0.333954245114297 -53.0096823723312 0.941402642515469 36.9095177697963 0.941402642515468 36.9095177697963 0.333954245114297 -53.0096823723311 
! Gamma         0                0                0                0                
! Port Impedance         50               0                50               0                
17.16                          0.330766321068043 -53.417777943514 0.942523519462666 36.4998408388797 0.942523519462666 36.4998408388797 0.330766321068043 -53.417777943514 
! Gamma         0                0                0                0                
! Port Impedance         50               0                50               0                
17.18                          0.327553849073176 -53.8268130043412 0.943640808197288 36.0891895002039 0.943640808197288 36.0891895002039 0.327553849073176 -53.8268130043412 
! Gamma         0                0                0                0                
! Port Impedance         50               0                50               0                
17.2                           0.324316890259543 -54.2367841648139 0.944754250771833 35.6775658376215 0.944754250771833 35.6775658376215 0.324316890259543 -54.2367841648139 
! Gamma         0                0                0                0                
! Port Impedance         50               0                50               0                
17.22                          0.321055510921527 -54.6476877320272 0.945863587599602 35.2649721723588 0.945863587599602 35.2649721723588 0.321055510921527 -54.6476877320272 
! Gamma         0                0                0                0                
! Port Impedance         50               0                50               0                
17.24                          0.317769782604472 -55.0595197035765 0.946968557529704 34.8514110654372 0.946968557529704 34.8514110654372 0.317769782604471 -55.0595197035765 
! Gamma         0                0                0                0                
! Port Impedance         50               0                50               0                
17.26                          0.314459782189667 -55.472275760709 0.948068897924935 34.4368853200251 0.948068897924935 34.4368853200251 0.314459782189667 -55.472275760709 
! Gamma         0                0                0                0                
! Port Impedance         50               0                50               0                
17.28                          0.311125591977796 -55.8859512611953 0.949164344742546 34.0213979837185 0.949164344742546 34.0213979837185 0.311125591977796 -55.8859512611953 
! Gamma         0                0                0                0                
! Port Impedance         50               0                50               0                
17.3                           0.307767299770715 -56.3005412318923 0.950254632617869 33.6049523507444 0.950254632617869 33.6049523507444 0.307767299770715 -56.3005412318923 
! Gamma         0                0                0                0                
! Port Impedance         50               0                50               0                
17.32                          0.304384998951457 -56.7160403609628 0.951339494950833 33.1875519640861 0.951339494950833 33.1875519640861 0.304384998951457 -56.7160403609628 
! Gamma         0                0                0                0                
! Port Impedance         50               0                50               0                
17.34                          0.300978788562333 -57.1324429897202 0.952418663995344 32.7692006175234 0.952418663995343 32.7692006175234 0.300978788562333 -57.1324429897202 
! Gamma         0                0                0                0                
! Port Impedance         50               0                50               0                
17.36                          0.297548773381005 -57.549743104052 0.953491870951512 32.3499023575867 0.953491870951513 32.3499023575867 0.297548773381005 -57.549743104052 
! Gamma         0                0                0                0                
! Port Impedance         50               0                50               0                
17.38                          0.294095063994428 -57.9679343253803 0.954558846060737 31.9296614854191 0.954558846060737 31.9296614854191 0.294095063994428 -57.9679343253804 
! Gamma         0                0                0                0                
! Port Impedance         50               0                50               0                
17.4                           0.290617776870506 -58.387009901107 0.955619318703594 31.5084825585442 0.955619318703594 31.5084825585442 0.290617776870506 -58.387009901107 
! Gamma         0                0                0                0                
! Port Impedance         50               0                50               0                
17.42                          0.287117034427371 -58.8069626944848 0.956673017500528 31.0863703925347 0.956673017500528 31.0863703925347 0.287117034427371 -58.8069626944848 
! Gamma         0                0                0                0                
! Port Impedance         50               0                50               0                
17.44                          0.283592965100137 -59.2277851738514 0.957719670415321 30.6633300625791 0.957719670415321 30.6633300625791 0.283592965100137 -59.2277851738514 
! Gamma         0                0                0                0                
! Port Impedance         50               0                50               0                
17.46                          0.280045703405016 -59.6494694011513 0.958759004861277 30.2393669049412 0.958759004861277 30.2393669049412 0.280045703405016 -59.6494694011513 
! Gamma         0                0                0                0                
! Port Impedance         50               0                50               0                
17.48                          0.276475390000663 -60.0720070196661 0.959790747810121 29.8144865183106 0.95979074781012 29.8144865183106 0.276475390000663 -60.0720070196661 
! Gamma         0                0                0                0                
! Port Impedance         50               0                50               0                
17.5                           0.272882171746635 -60.4953892408576 0.960814625903543 29.3886947650382 0.960814625903543 29.3886947650382 0.272882171746635 -60.4953892408576 
! Gamma         0                0                0                0                
! Port Impedance         50               0                50               0                
17.52                          0.269266201758831 -60.9196068302197 0.96183036556735 28.9619977722557 0.961830365567349 28.9619977722557 0.269266201758831 -60.9196068302197 
! Gamma         0                0                0                0                
! Port Impedance         50               0                50               0                
17.54                          0.265627639461787 -61.3446500920237 0.96283769312817 28.5344019328725 0.96283769312817 28.5344019328725 0.265627639461787 -61.3446500920237 
! Gamma         0                0                0                0                
! Port Impedance         50               0                50               0                
17.56                          0.261966650637716 -61.7705088528172 0.963836334932663 28.1059139064488 0.963836334932663 28.1059139064488 0.261966650637715 -61.7705088528172 
! Gamma         0                0                0                0                
! Port Impedance         50               0                50               0                
17.58                          0.258283407472153 -62.1971724435303 0.964826017469145 27.67654061994   0.964826017469146 27.67654061994   0.258283407472153 -62.1971724435303 
! Gamma         0                0                0                0                
! Port Impedance         50               0                50               0                
17.6                           0.254578088596105 -62.6246296800121 0.965806467491601 27.2462892683093 0.9658064674916  27.2462892683093 0.254578088596105 -62.6246296800121 
! Gamma         0                0                0                0                
! Port Impedance         50               0                50               0                
17.62                          0.250850879124557 -63.0528688418046 0.966777412145971 26.8151673150052 0.966777412145971 26.8151673150052 0.250850879124557 -63.0528688418045 
! Gamma         0                0                0                0                
! Port Impedance         50               0                50               0                
17.64                          0.247101970691255 -63.4818776489263 0.967738579098671 26.3831824923005 0.967738579098672 26.3831824923005 0.247101970691255 -63.4818776489264 
! Gamma         0                0                0                0                
! Port Impedance         50               0                50               0                
17.66                          0.243331561479616 -63.9116432364147 0.968689696667224 25.9503428014892 0.968689696667224 25.9503428014892 0.243331561479616 -63.9116432364147 
! Gamma         0                0                0                0                
! Port Impedance         50               0                50               0                
17.68                          0.239539856249671 -64.3421521263305 0.969630493952955 25.5166565129384 0.969630493952955 25.5166565129384 0.239539856249671 -64.3421521263306 
! Gamma         0                0                0                0                
! Port Impedance         50               0                50               0                
17.7                           0.23572706636093 -64.773390196894 0.970560700975619 25.0821321659925 0.970560700975619 25.0821321659925 0.23572706636093 -64.773390196894 
! Gamma         0                0                0                0                
! Port Impedance         50               0                50               0                
17.72                          0.231893409791054 -65.2053426483635 0.971480048809893 24.6467785687259 0.971480048809893 24.6467785687258 0.231893409791053 -65.2053426483635 
! Gamma         0                0                0                0                
! Port Impedance         50               0                50               0                
17.74                          0.22803911115024 -65.637993965219 0.97238826972361 24.2106047975419 0.97238826972361 24.2106047975419 0.228039111150239 -65.637993965219 
! Gamma         0                0                0                0                
! Port Impedance         50               0                50               0                
17.76                          0.224164401691213 -66.0713278741358 0.973285097317631 23.7736201966155 0.973285097317632 23.7736201966155 0.224164401691213 -66.0713278741359 
! Gamma         0                0                0                0                
! Port Impedance         50               0                50               0                
17.78                          0.220269519314733 -66.5053272971622 0.974170266667248 23.3358343771757 0.974170266667248 23.3358343771757 0.220269519314733 -66.5053272971622 
! Gamma         0                0                0                0                
! Port Impedance         50               0                50               0                
17.8                           0.216354708570528 -66.939974299412 0.975043514464983 22.8972572166277 0.975043514464983 22.8972572166277 0.216354708570528 -66.9399742994121 
! Gamma         0                0                0                0                
! Port Impedance         50               0                50               0                
17.82                          0.212420220653554 -67.3752500304838 0.97590457916468 22.4578988575097 0.975904579164681 22.4578988575096 0.212420220653554 -67.3752500304838 
! Gamma         0                0                0                0                
! Port Impedance         50               0                50               0                
17.84                          0.208466313395531 -67.8111346586715 0.976753201126753 22.0177697062843 0.976753201126753 22.0177697062843 0.208466313395531 -67.8111346586715 
! Gamma         0                0                0                0                
! Port Impedance         50               0                50               0                
17.86                          0.204493251251639 -68.2476072968917 0.977589122764441 21.576880431962  0.977589122764441 21.576880431962  0.20449325125164 -68.2476072968917 
! Gamma         0                0                0                0                
! Port Impedance         50               0                50               0                
17.88                          0.200501305282347 -68.6846459190508 0.978412088690973 21.135241964553  0.978412088690973 21.135241964553  0.200501305282348 -68.6846459190507 
! Gamma         0                0                0                0                
! Port Impedance         50               0                50               0                
17.9                           0.19649075313028 -69.1222272653624 0.979221845867448 20.6928654933494 0.979221845867449 20.6928654933494 0.19649075313028 -69.1222272653625 
! Gamma         0                0                0                0                
! Port Impedance         50               0                50               0                
17.92                          0.192461878992096 -69.5603267348525 0.980018143751341 20.2497624650333 0.980018143751341 20.2497624650333 0.192461878992096 -69.5603267348525 
! Gamma         0                0                0                0                
! Port Impedance         50               0                50               0                
17.94                          0.188414973585302 -69.9989182629632 0.980800734445435 19.8059445816094 0.980800734445436 19.8059445816094 0.188414973585301 -69.9989182629634 
! Gamma         0                0                0                0                
! Port Impedance         50               0                50               0                
17.96                          0.184350334109994 -70.4379741817792 0.981569372847065 19.3614237981641 0.981569372847065 19.3614237981641 0.184350334109994 -70.4379741817792 
! Gamma         0                0                0                0                
! Port Impedance         50               0                50               0                
17.98                          0.180268264205482 -70.8774650599166 0.982323816797485 18.9162123204461 0.982323816797485 18.9162123204461 0.180268264205482 -70.8774650599166 
! Gamma         0                0                0                0                
! Port Impedance         50               0                50               0                
18                             0.176169073901774 -71.3173595185361 0.983063827231232 18.4703226022712 0.983063827231232 18.4703226022712 0.176169073901775 -71.317359518536 
! Gamma         0                0                0                0                
! Port Impedance         50               0                50               0                
18.02                          0.172053079565936 -71.7576240192186 0.983789168325286 18.0237673427484 0.983789168325286 18.0237673427484 0.172053079565936 -71.7576240192185 
! Gamma         0                0                0                0                
! Port Impedance         50               0                50               0                
18.04                          0.167920603843302 -72.1982226185662 0.984499607647894 17.5765594833283 0.984499607647893 17.5765594833283 0.167920603843302 -72.1982226185662 
! Gamma         0                0                0                0                
! Port Impedance         50               0                50               0                
18.06                          0.163771975593598 -72.6391166832841 0.985194916306864 17.1287122046738 0.985194916306864 17.1287122046738 0.163771975593598 -72.6391166832841 
! Gamma         0                0                0                0                
! Port Impedance         50               0                50               0                
18.08                          0.159607529821974 -73.080264558144 0.985874869097177 16.6802389233528 0.985874869097176 16.6802389233528 0.159607529821974 -73.0802645581441 
! Gamma         0                0                0                0                
! Port Impedance         50               0                50               0                
18.1                           0.155427607605025 -73.521621177513 0.986539244647725 16.2311532883525 0.986539244647725 16.2311532883525 0.155427607605025 -73.5216211775129 
! Gamma         0                0                0                0                
! Port Impedance         50               0                50               0                
18.12                          0.151232556011886 -73.9631376089677 0.987187825567021 15.7814691774184 0.987187825567021 15.7814691774185 0.151232556011886 -73.9631376089678 
! Gamma         0                0                0                0                
! Port Impedance         50               0                50               0                
18.14                          0.14702272802048 -74.4047605147929 0.987820398587693 15.3312006932158 0.987820398587693 15.3312006932158 0.14702272802048 -74.404760514793 
! Gamma         0                0                0                0                
! Port Impedance         50               0                50               0                
18.16                          0.142798482429087 -74.8464315136486 0.988436754709573 14.8803621593173 0.988436754709572 14.8803621593173 0.142798482429088 -74.8464315136485 
! Gamma         0                0                0                0                
! Port Impedance         50               0                50               0                
18.18                          0.138560183763375 -75.2880864202223 0.989036689341236 14.4289681160162 0.989036689341236 14.4289681160162 0.138560183763375 -75.2880864202222 
! Gamma         0                0                0                0                
! Port Impedance         50               0                50               0                
18.2                           0.134308202179149 -75.7296543348464 0.989620002439775 13.9770333159684 0.989620002439775 13.9770333159684 0.134308202179149 -75.7296543348464 
! Gamma         0                0                0                0                
! Port Impedance         50               0                50               0                
18.22                          0.130042913361079 -76.1710565474966 0.990186498648656 13.5245727196638 0.990186498648656 13.5245727196638 0.130042913361079 -76.1710565474966 
! Gamma         0                0                0                0                
! Port Impedance         50               0                50               0                
18.24                          0.125764698417752 -76.612205210595 0.99073598743347 13.0716014907292 0.99073598743347 13.0716014907292 0.125764698417752 -76.612205210595 
! Gamma         0                0                0                0                
! Port Impedance         50               0                50               0                
18.26                          0.121473943773537 -77.0530017218127 0.991268283215392 12.6181349910664 0.991268283215392 12.6181349910664 0.121473943773537 -77.0530017218127 
! Gamma         0                0                0                0                
! Port Impedance         50               0                50               0                
18.28                          0.117171041057809 -77.4933347403419 0.991783205502189 12.1641887758264 0.991783205502189 12.1641887758264 0.117171041057809 -77.4933347403419 
! Gamma         0                0                0                0                
! Port Impedance         50               0                50               0                
18.3                           0.112856386992292 -77.9330777361345 0.992280579016593 11.7097785882231 0.992280579016593 11.7097785882231 0.112856386992292 -77.9330777361344 
! Gamma         0                0                0                0                
! Port Impedance         50               0                50               0                
18.32                          0.108530383277504 -78.372085938841 0.992760233821858 11.2549203541898 0.992760233821858 11.2549203541898 0.108530383277504 -78.3720859388411 
! Gamma         0                0                0                0                
! Port Impedance         50               0                50               0                
18.34                          0.104193436479589 -78.8101925079079 0.993222005444342 10.7996301768817 0.993222005444343 10.7996301768817 0.104193436479589 -78.8101925079078 
! Gamma         0                0                0                0                
! Port Impedance         50               0                50               0                
18.36                          0.0998459579192493 -79.2472036819141 0.993665734992939 10.343924331028  0.99366573499294 10.343924331028  0.0998459579192494 -79.2472036819142 
! Gamma         0                0                0                0                
! Port Impedance         50               0                50               0                
18.38                          0.0954883635651173 -79.6828925754003 0.994091269275191 9.88781925713614 0.994091269275191 9.88781925713614 0.0954883635651174 -79.6828925754001 
! Gamma         0                0                0                0                
! Port Impedance         50               0                50               0                
18.4                           0.0911210739347692 -80.1169911622363 0.994498460909924 9.43133155555479 0.994498460909924 9.43133155555479 0.0911210739347692 -80.116991162236 
! Gamma         0                0                0                0                
! Port Impedance         50               0                50               0                
18.42                          0.0867445140078518 -80.5491797958853 0.994887168436243 8.97447798039683 0.994887168436243 8.97447798039683 0.0867445140078519 -80.5491797958852 
! Gamma         0                0                0                0                
! Port Impedance         50               0                50               0                
18.44                          0.0823591131576908 -80.9790733366294 0.99525725641874 8.51727543332924 0.99525725641874 8.51727543332923 0.0823591131576908 -80.9790733366292 
! Gamma         0                0                0                0                
! Port Impedance         50               0                50               0                
18.46                          0.0779653051105705 -81.4062025317461 0.995608595548737 8.0597409572322  0.995608595548737 8.0597409572322  0.0779653051105706 -81.406202531746 
! Gamma         0                0                0                0                
! Port Impedance         50               0                50               0                
18.48                          0.0735635279463138 -81.8299886398372 0.995941062741461 7.60189172973516 0.99594106274146 7.60189172973516 0.0735635279463138 -81.8299886398372 
! Gamma         0                0                0                0                
! Port Impedance         50               0                50               0                
18.5                           0.0691542241606599 -82.2497082565772 0.996254541228961 7.14374505663171 0.996254541228961 7.14374505663171 0.0691542241606599 -82.2497082565773 
! Gamma         0                0                0                0                
! Port Impedance         50               0                50               0                
18.52                          0.0647378408212163 -82.6644436253999 0.996548920648674 6.68531836518122 0.996548920648674 6.68531836518123 0.0647378408212163 -82.6644436253996 
! Gamma         0                0                0                0                
! Port Impedance         50               0                50               0                
18.54                          0.0603148298673819 -83.0730109306717 0.996824097127468 6.22662919730147 0.996824097127468 6.22662919730147 0.0603148298673818 -83.0730109306723 
! Gamma         0                0                0                0                
! Port Impedance         50               0                50               0                
18.56                          0.0558856486367067 -83.4738542861513 0.99707997336108 5.76769520265726 0.99707997336108 5.76769520265726 0.0558856486367067 -83.4738542861515 
! Gamma         0                0                0                0                
! Port Impedance         50               0                50               0                
18.58                          0.0514507607572101 -83.8648846166468 0.99731645868879 5.30853413165282 0.99731645868879 5.30853413165282 0.05145076075721 -83.8648846166474 
! Gamma         0                0                0                0                
! Port Impedance         50               0                50               0                
18.6                           0.0470106376508646 -84.2432268487763 0.997533469163244 4.84916382833156 0.997533469163244 4.84916382833156 0.0470106376508645 -84.2432268487766 
! Gamma         0                0                0                0                
! Port Impedance         50               0                50               0                
18.62                          0.0425657610989172 -84.6048081648721 0.997730927615317 4.38960222319171 0.997730927615317 4.38960222319171 0.0425657610989172 -84.6048081648721 
! Gamma         0                0                0                0                
! Port Impedance         50               0                50               0                
18.64                          0.0381166277414578 -84.9436571227793 0.997908763713908 3.92986732592224 0.997908763713908 3.92986732592225 0.0381166277414578 -84.9436571227789 
! Gamma         0                0                0                0                
! Port Impedance         50               0                50               0                
18.66                          0.0336637573085706 -85.2506454226554 0.998066914020587 3.46997721806617 0.998066914020587 3.46997721806617 0.0336637573085706 -85.2506454226554 
! Gamma         0                0                0                0                
! Port Impedance         50               0                50               0                
18.68                          0.0292077085770129 -85.5110763740514 0.998205322039004 3.00995004561823 0.998205322039004 3.00995004561823 0.0292077085770129 -85.5110763740522 
! Gamma         0                0                0                0                
! Port Impedance         50               0                50               0                
18.7                           0.0247491128072963 -85.6996648556735 0.998323938258982 2.5498040115626  0.998323938258983 2.54980401156259 0.0247491128072963 -85.6996648556738 
! Gamma         0                0                0                0                
! Port Impedance         50               0                50               0                
18.72                          0.0202887515783995 -85.7688949000062 0.998422720195247 2.08955736835863 0.998422720195247 2.08955736835863 0.0202887515783995 -85.7688949000059 
! Gamma         0                0                0                0                
! Port Impedance         50               0                50               0                
18.74                          0.0158277666206846 -85.6177005640424 0.998501632420689 1.62922841038057 0.998501632420689 1.62922841038057 0.0158277666206846 -85.6177005640411 
! Gamma         0                0                0                0                
! Port Impedance         50               0                50               0                
18.76                          0.0113683639871443 -84.9865403832058 0.998560646594166 1.16883546631769 0.998560646594166 1.16883546631769 0.0113683639871443 -84.9865403832077 
! Gamma         0                0                0                0                
! Port Impedance         50               0                50               0                
18.78                          0.00691723915387893 -82.9484570077664 0.998599741482752 0.708396891544217 0.998599741482752 0.708396891544217 0.00691723915387889 -82.9484570077695 
! Gamma         0                0                0                0                
! Port Impedance         50               0                50               0                
18.8                           0.00252532914267733 -72.0907232736094 0.998618902978425 0.247931060462346 0.998618902978425 0.247931060462346 0.00252532914267749 -72.0907232735985 
! Gamma         0                0                0                0                
! Port Impedance         50               0                50               0                
18.82                          0.0022008832914151 69.3633658216544 0.998618124109159 -0.21254364117009 0.998618124109159 -0.21254364117009 0.00220088329141514 69.3633658216513 
! Gamma         0                0                0                0                
! Port Impedance         50               0                50               0                
18.84                          0.0065763379293026 82.6042756980912 0.998597405044411 -0.673008823924948 0.998597405044411 -0.673008823924948 0.0065763379293026 82.6042756980912 
! Gamma         0                0                0                0                
! Port Impedance         50               0                50               0                
18.86                          0.0110260516562855 84.8535969269738 0.998556753094979 -1.13344610239033 0.998556753094979 -1.13344610239033 0.0110260516562855 84.8535969269751 
! Gamma         0                0                0                0                
! Port Impedance         50               0                50               0                
18.88                          0.0154850740807631 85.5435481912931 0.998496182707247 -1.59383710285487 0.998496182707247 -1.59383710285487 0.0154850740807631 85.5435481912936 
! Gamma         0                0                0                0                
! Port Impedance         50               0                50               0                
18.9                           0.019945915189735 85.7190138070949 0.99841571545182 -2.05416347098082 0.99841571545182 -2.05416347098082 0.019945915189735 85.7190138070949 
! Gamma         0                0                0                0                
! Port Impedance         50               0                50               0                
18.92                          0.0244062175095096 85.6620892847405 0.998315380006564 -2.51440687945811 0.998315380006564 -2.51440687945811 0.0244062175095096 85.6620892847405 
! Gamma         0                0                0                0                
! Port Impedance         50               0                50               0                
18.94                          0.0288647940870727 85.4805862684994 0.998195212134077 -2.97454903563523 0.998195212134077 -2.97454903563523 0.0288647940870727 85.4805862685002 
! Gamma         0                0                0                0                
! Port Impedance         50               0                50               0                
18.96                          0.0333208460366609 85.2246056683268 0.998055254653638 -3.43457168911578 0.998055254653638 -3.43457168911578 0.0333208460366609 85.2246056683275 
! Gamma         0                0                0                0                
! Port Impedance         50               0                50               0                
18.98                          0.0377737343278089 84.9205954727812 0.997895557407655 -3.89445663931783 0.997895557407655 -3.89445663931783 0.037773734327809 84.9205954727808 
! Gamma         0                0                0                0                
! Port Impedance         50               0                50               0                
19                             0.0422228962838978 84.5838381968467 0.997716177222686 -4.35418574298557 0.997716177222686 -4.35418574298557 0.0422228962838977 84.5838381968469 
! Gamma         0                0                0                0                
! Port Impedance         50               0                50               0                
19.02                          0.0466678100512615 84.2237832858974 0.997517177865082 -4.81374092164903 0.997517177865082 -4.81374092164903 0.0466678100512615 84.2237832858971 
! Gamma         0                0                0                0                
! Port Impedance         50               0                50               0                
19.04                          0.0511079777610909 83.8465901754825 0.997298629991316 -5.27310416902411 0.997298629991316 -5.27310416902411 0.051107977761091 83.8465901754824 
! Gamma         0                0                0                0                
! Port Impedance         50               0                50               0                
19.06                          0.0555429168885711 83.4564476671583 0.997060611093087 -5.7322575583449 0.997060611093087 -5.7322575583449 0.0555429168885712 83.4564476671583 
! Gamma         0                0                0                0                
! Port Impedance         50               0                50               0                
19.08                          0.0599721555474184 83.0563055379148 0.996803205437274 -6.19118324962583 0.996803205437274 -6.19118324962583 0.0599721555474183 83.0563055379147 
! Gamma         0                0                0                0                
! Port Impedance         50               0                50               0                
19.1                           0.0643952298142844 82.6483027380446 0.996526504000824 -6.64986349684089 0.996526504000824 -6.64986349684089 0.0643952298142843 82.6483027380444 
! Gamma         0                0                0                0                
! Port Impedance         50               0                50               0                
19.12                          0.0688116821630536 82.2340294816339 0.9962306044007  -7.10828065502101 0.9962306044007  -7.10828065502101 0.0688116821630536 82.2340294816339 
! Gamma         0                0                0                0                
! Port Impedance         50               0                50               0                
19.14                          0.0732210605358017 81.8146938369778 0.995915610818954 -7.56641718725697 0.995915610818954 -7.56641718725696 0.0732210605358016 81.8146938369784 
! Gamma         0                0                0                0                
! Port Impedance         50               0                50               0                
19.16                          0.0776229177939205 81.3912310883006 0.995581633923077 -8.02425567160581 0.995581633923077 -8.02425567160581 0.0776229177939205 81.3912310883004 
! Gamma         0                0                0                0                
! Port Impedance         50               0                50               0                
19.18                          0.0820168114039296 80.964377561609  0.995228790781722 -8.48177880789393 0.995228790781721 -8.48177880789393 0.0820168114039295 80.9643775616088 
! Gamma         0                0                0                0                
! Port Impedance         50               0                50               0                
19.2                           0.0864023032722053 80.5347216930693 0.994857204775921 -8.93896942441026 0.994857204775921 -8.93896942441026 0.0864023032722053 80.5347216930691 
! Gamma         0                0                0                0                
! Port Impedance         50               0                50               0                
19.22                          0.0907789596763508 80.1027401235673 0.994467005505959 -9.39581048448584 0.994467005505959 -9.39581048448584 0.0907789596763508 80.1027401235674 
! Gamma         0                0                0                0                
! Port Impedance         50               0                50               0                
19.24                          0.0951463512603249 79.6688237024004 0.994058328693998 -9.85228509295264 0.994058328693998 -9.85228509295264 0.0951463512603248 79.6688237024005 
! Gamma         0                0                0                0                
! Port Impedance         50               0                50               0                
19.26                          0.0995040530721361 79.2332965443074 0.993631316082627 -10.3083765024783 0.993631316082626 -10.3083765024783 0.0995040530721361 79.2332965443075 
! Gamma         0                0                0                0                
! Port Impedance         50               0                50               0                
19.28                          0.103851644630067 78.7964302121238 0.993186115329469 -10.7640681197708 0.993186115329469 -10.7640681197708 0.103851644630067 78.7964302121237 
! Gamma         0                0                0                0                
! Port Impedance         50               0                50               0                
19.3                           0.108188710007949 78.3584544197565 0.992722879898   -11.2193435116481 0.992722879898   -11.2193435116481 0.108188710007949 78.3584544197564 
! Gamma         0                0                0                0                
! Port Impedance         50               0                50               0                
19.32                          0.112514837932958 77.9195652120288 0.992241768944744 -11.6741864109707 0.992241768944744 -11.6741864109707 0.112514837932958 77.9195652120288 
! Gamma         0                0                0                0                
! Port Impedance         50               0                50               0                
19.34                          0.116829621891323 77.4799312888019 0.991742947202984 -12.1285807224289 0.991742947202985 -12.1285807224289 0.116829621891323 77.479931288802  
! Gamma         0                0                0                0                
! Port Impedance         50               0                50               0                
19.36                          0.121132660238684 77.0396989463848 0.991226584863174 -12.582510528185 0.991226584863174 -12.582510528185 0.121132660238684 77.0396989463849 
! Gamma         0                0                0                0                
! Port Impedance         50               0                50               0                
19.38                          0.125423556312686 76.5989959763054 0.990692857450202 -13.0359600933637 0.990692857450202 -13.0359600933637 0.125423556312686 76.5989959763054 
! Gamma         0                0                0                0                
! Port Impedance         50               0                50               0                
19.4                           0.129701918546075 76.1579347691846 0.990141945697693 -13.4889138713889 0.990141945697693 -13.4889138713889 0.129701918546075 76.1579347691845 
! Gamma         0                0                0                0                
! Port Impedance         50               0                50               0                
19.42                          0.133967360578965 75.7166148063987 0.989574035419496 -13.941356509162 0.989574035419495 -13.941356509162 0.133967360578965 75.7166148063987 
! Gamma         0                0                0                0                
! Port Impedance         50               0                50               0                
19.44                          0.138219501369281 75.2751246757713 0.988989317378551 -14.3932728520805 0.98898931737855 -14.3932728520805 0.138219501369281 75.2751246757712 
! Gamma         0                0                0                0                
! Port Impedance         50               0                50               0                
19.46                          0.142457965300631 74.8335437139595 0.988387987153309 -14.8446479488934 0.988387987153309 -14.8446479488934 0.142457965300631 74.8335437139593 
! Gamma         0                0                0                0                
! Port Impedance         50               0                50               0                
19.48                          0.146682382286978 74.391943353659  0.987770245001871 -15.2954670563896 0.987770245001871 -15.2954670563896 0.146682382286978 74.391943353659  
! Gamma         0                0                0                0                
! Port Impedance         50               0                50               0                
19.5                           0.150892387873709 73.9503882356193 0.987136295724028 -15.7457156439196 0.987136295724028 -15.7457156439196 0.150892387873709 73.9503882356192 
! Gamma         0                0                0                0                
! Port Impedance         50               0                50               0                
19.52                          0.155087623334677 73.5089371319254 0.986486348521394 -16.1953793977452 0.986486348521394 -16.1953793977452 0.155087623334677 73.5089371319256 
! Gamma         0                0                0                0                
! Port Impedance         50               0                50               0                
19.54                          0.15926773576498 73.0676437168128 0.985820616855785 -16.6444442252186 0.985820616855785 -16.6444442252186 0.15926773576498 73.0676437168129 
! Gamma         0                0                0                0                
! Port Impedance         50               0                50               0                
19.56                          0.163432378169228 72.6265572135348 0.985139318306048 -17.0928962587875 0.985139318306047 -17.0928962587875 0.163432378169227 72.6265572135346 
! Gamma         0                0                0                0                
! Port Impedance         50               0                50               0                
19.58                          0.167581209545115 72.1857229398768 0.984442674423496 -17.5407218598243 0.984442674423496 -17.5407218598243 0.167581209545115 72.1857229398768 
! Gamma         0                0                0                0                
! Port Impedance         50               0                50               0                
19.6                           0.171713894962192 71.745182770324  0.983730910586152 -17.9879076222806 0.983730910586152 -17.9879076222806 0.171713894962192 71.7451827703239 
! Gamma         0                0                0                0                
! Port Impedance         50               0                50               0                
19.62                          0.175830105635685 71.3049755293308 0.983004255851944 -18.434440376164 0.983004255851944 -18.434440376164 0.175830105635685 71.3049755293307 
! Gamma         0                0                0                0                
! Port Impedance         50               0                50               0                
19.64                          0.179929518995318 70.8651373273597 0.982262942811059 -18.8803071908373 0.98226294281106 -18.8803071908373 0.179929518995318 70.8651373273597 
! Gamma         0                0                0                0                
! Port Impedance         50               0                50               0                
19.66                          0.18401181874907 70.4257018491489 0.981507207437613 -19.32549537814  0.981507207437614 -19.32549537814  0.18401181874907 70.4257018491489 
! Gamma         0                0                0                0                
! Port Impedance         50               0                50               0                
19.68                          0.188076694941821 69.9867006019306 0.9807372889408  -19.7699924953322 0.980737288940799 -19.7699924953322 0.18807669494182 69.9867006019306 
! Gamma         0                0                0                0                
! Port Impedance         50               0                50               0                
19.7                           0.192123844008873 69.5481631299381 0.979953429615706 -20.2137863478597 0.979953429615705 -20.2137863478597 0.192123844008873 69.5481631299381 
! Gamma         0                0                0                0                
! Port Impedance         50               0                50               0                
19.72                          0.196152968824337 69.1101172004135 0.97915587469395 -20.6568649919412 0.97915587469395 -20.6568649919412 0.196152968824337 69.1101172004135 
! Gamma         0                0                0                0                
! Port Impedance         50               0                50               0                
19.74                          0.2001637787444  68.6725889654401 0.978344872194299 -21.0992167369802 0.978344872194299 -21.0992167369802 0.2001637787444  68.6725889654401 
! Gamma         0                0                0                0                
! Port Impedance         50               0                50               0                
19.76                          0.204155989645461 68.2356031031878 0.977520672773441 -21.5408301477976 0.977520672773441 -21.5408301477976 0.204155989645461 68.2356031031878 
! Gamma         0                0                0                0                
! Port Impedance         50               0                50               0                
19.78                          0.20812932395721 67.7991829415709 0.97668352957705 -21.9816940466913 0.97668352957705 -21.9816940466913 0.20812932395721 67.7991829415708 
! Gamma         0                0                0                0                
! Port Impedance         50               0                50               0                
19.8                           0.212083510690641 67.3633505668311 0.975833698091318 -22.4217975153194 0.975833698091318 -22.4217975153194 0.212083510690641 67.3633505668312 
! Gamma         0                0                0                0                
! Port Impedance         50               0                50               0                
19.82                          0.216018285461083 66.9281269191583 0.974971435995083 -22.8611298964121 0.974971435995083 -22.8611298964121 0.216018285461083 66.9281269191583 
! Gamma         0                0                0                0                
! Port Impedance         50               0                50               0                
19.84                          0.21993339050627 66.4935318771363 0.974097003012714 -23.2996807953096 0.974097003012714 -23.2996807953096 0.21993339050627 66.4935318771362 
! Gamma         0                0                0                0                
! Port Impedance         50               0                50               0                
19.86                          0.22382857469954 66.0595843325236 0.973210660767883 -23.7374400813329 0.973210660767884 -23.7374400813329 0.223828574699539 66.0595843325237 
! Gamma         0                0                0                0                
! Port Impedance         50               0                50               0                
19.88                          0.227703593558219 65.6263022566579 0.972312672638371 -24.1743978889841 0.972312672638372 -24.1743978889841 0.227703593558219 65.6263022566579 
! Gamma         0                0                0                0                
! Port Impedance         50               0                50               0                
19.9                           0.231558209247264 65.1937027595768 0.971403303612029 -24.6105446189817 0.971403303612029 -24.6105446189817 0.231558209247264 65.1937027595768 
! Gamma         0                0                0                0                
! Port Impedance         50               0                50               0                
19.92                          0.235392190578237 64.7618021427966 0.970482820144032 -25.0458709391319 0.970482820144032 -25.0458709391319 0.235392190578236 64.7618021427966 
! Gamma         0                0                0                0                
! Port Impedance         50               0                50               0                
19.94                          0.239205313003722 64.3306159465504 0.969551490015548 -25.4803677850381 0.969551490015548 -25.4803677850381 0.239205313003722 64.3306159465505 
! Gamma         0                0                0                0                
! Port Impedance         50               0                50               0                
19.96                          0.242997358607252 63.9001589921797 0.968609582193933 -25.9140263606514 0.968609582193934 -25.9140263606514 0.242997358607252 63.9001589921797 
! Gamma         0                0                0                0                
! Port Impedance         50               0                50               0                
19.98                          0.246768116088845 63.4704454202746 0.967657366694572 -26.3468381386649 0.967657366694572 -26.3468381386649 0.246768116088846 63.4704454202746 
! Gamma         0                0                0                0                
! Port Impedance         50               0                50               0                
20                             0.250517380746261 63.0414887250805 0.966695114444471 -26.778794860753 0.966695114444471 -26.778794860753 0.250517380746261 63.0414887250805 
! Gamma         0                0                0                0                
! Port Impedance         50               0                50               0                
! Noise Data
