! Touchstone file exported from Circuit Design 2026.1.0
!        File:           local/demo-project/Project1.aedt
!        Generated:      01:58:43 PM Apr 21, 2026
!        Design:         Circuit1
!        Project:        Project1
!        Setup:          LinearFrequency
!        Solution:       LinearFrequency
!
# GHz S MA R 50.000000
! Terminal data exported
! Port[1] = Port1
! Port[2] = Port2
0                              0.000126045943946446 -0               0.999873954056053 -0               0.999873954056053 -0               0.00012604594394632 -0               
! Gamma         0                0                0                0                
! Port Impedance         50               0                50               0                
0.02                           0.00489012928747151 87.9374542543979 0.999854826029471 -0.501397172119735 0.999854826029471 -0.501397172119735 0.00489012928747151 87.9374542543979 
! Gamma         0                0                0                0                
! Port Impedance         50               0                50               0                
0.04                           0.009768355055851 88.1293909372364 0.999804260012896 -1.00226688851755 0.999804260012896 -1.00226688851755 0.009768355055851 88.1293909372364 
! Gamma         0                0                0                0                
! Port Impedance         50               0                50               0                
0.06                           0.0146386204289827 87.8551243564871 0.999728785412244 -1.50267398496161 0.999728785412244 -1.50267398496161 0.0146386204289828 87.8551243564871 
! Gamma         0                0                0                0                
! Port Impedance         50               0                50               0                
0.08                           0.0195025236022011 87.4696903689057 0.999630244235396 -2.00274260947312 0.999630244235397 -2.00274260947311 0.0195025236022011 87.4696903689064 
! Gamma         0                0                0                0                
! Port Impedance         50               0                50               0                
0.1                            0.0243609289351672 87.0406955638456 0.999509029684001 -2.5025369413636 0.999509029684001 -2.5025369413636 0.0243609289351672 87.0406955638453 
! Gamma         0                0                0                0                
! Port Impedance         50               0                50               0                
0.12                           0.0292141043882012 86.5900108195634 0.99936519817217 -3.00208420250238 0.99936519817217 -3.00208420250238 0.0292141043882012 86.5900108195642 
! Gamma         0                0                0                0                
! Port Impedance         50               0                50               0                
0.14                           0.0340619930864924 86.1268905455179 0.999198737310067 -3.50139223489055 0.999198737310067 -3.50139223489055 0.0340619930864924 86.1268905455181 
! Gamma         0                0                0                0                
! Port Impedance         50               0                50               0                
0.16                           0.0389043580470188 85.6559580485796 0.999009633810906 -4.00045826034831 0.999009633810906 -4.00045826034831 0.0389043580470188 85.6559580485796 
! Gamma         0                0                0                0                
! Port Impedance         50               0                50               0                
0.18                           0.043740856849342 85.1798010986371 0.998797890837202 -4.49927330216462 0.998797890837202 -4.49927330216462 0.043740856849342 85.179801098637  
! Gamma         0                0                0                0                
! Port Impedance         50               0                50               0                
0.2                            0.0485710821954077 84.6999937104694 0.998563531396934 -4.99782456020436 0.998563531396933 -4.99782456020437 0.0485710821954077 84.6999937104696 
! Gamma         0                0                0                0                
! Port Impedance         50               0                50               0                
0.22                           0.0533945852995372 84.2175563859288 0.998306597812146 -5.49609677026557 0.998306597812145 -5.49609677026557 0.0533945852995372 84.2175563859283 
! Gamma         0                0                0                0                
! Port Impedance         50               0                50               0                
0.24                           0.058210890144181 83.7331852961552 0.99802715022616 -5.99407302728414 0.99802715022616 -5.99407302728414 0.058210890144181 83.7331852961552 
! Gamma         0                0                0                0                
! Port Impedance         50               0                50               0                
0.26                           0.0630195026046324 83.2473756324347 0.997725265044753 -6.4917353088737 0.997725265044752 -6.4917353088737 0.0630195026046325 83.2473756324346 
! Gamma         0                0                0                0                
! Port Impedance         50               0                50               0                
0.28                           0.0678199165473412 82.7604922488362 0.997401033558236 -6.98906482275167 0.997401033558236 -6.98906482275166 0.0678199165473412 82.7604922488361 
! Gamma         0                0                0                0                
! Port Impedance         50               0                50               0                
0.3                            0.0726116180651794 82.2728122248305 0.997054560784473 -7.48604224606015 0.997054560784472 -7.48604224606015 0.0726116180651793 82.2728122248306 
! Gamma         0                0                0                0                
! Port Impedance         50               0                50               0                
0.32                           0.0773940885220913 81.7845516161954 0.996685964510646 -7.98264789577568 0.996685964510647 -7.98264789577568 0.0773940885220913 81.7845516161953 
! Gamma         0                0                0                0                
! Port Impedance         50               0                50               0                
0.34                           0.0821668068113767 81.2958828796074 0.996295374497685 -8.47886185372036 0.996295374497684 -8.47886185372036 0.0821668068113767 81.2958828796074 
! Gamma         0                0                0                0                
! Port Impedance         50               0                50               0                
0.36                           0.0869292510791779 80.8069465749684 0.995882931812764 -8.97466406078421 0.995882931812764 -8.97466406078421 0.0869292510791778 80.8069465749686 
! Gamma         0                0                0                0                
! Port Impedance         50               0                50               0                
0.38                           0.091680900074558 80.3178594355872 0.99544878826104 -9.47003438972048 0.99544878826104 -9.47003438972047 0.091680900074558 80.3178594355872 
! Gamma         0                0                0                0                
! Port Impedance         50               0                50               0                
0.4                            0.0964212342325234 79.8287200638344 0.99499310589371 -9.96495270267884 0.994993105893711 -9.96495270267884 0.0964212342325234 79.8287200638342 
! Gamma         0                0                0                0                
! Port Impedance         50               0                50               0                
0.42                           0.101149736561766 79.3396130337059 0.994516056574674 -10.4593988976354 0.994516056574674 -10.4593988976354 0.101149736561766 79.3396130337061 
! Gamma         0                0                0                0                
! Port Impedance         50               0                50               0                
0.44                           0.105865893386611 78.8506118997896 0.994017821592191 -10.9533529465857 0.994017821592191 -10.9533529465857 0.105865893386611 78.8506118997896 
! Gamma         0                0                0                0                
! Port Impedance         50               0                50               0                
0.46                           0.110569194977941 78.3617814400349 0.993498591305092 -11.4467949275167 0.993498591305092 -11.4467949275167 0.110569194977941 78.3617814400349 
! Gamma         0                0                0                0                
! Port Impedance         50               0                50               0                
0.48                           0.115259136097948 77.8731793517933 0.992958564815599 -11.9397050515957 0.9929585648156  -11.9397050515957 0.115259136097948 77.8731793517934 
! Gamma         0                0                0                0                
! Port Impedance         50               0                50               0                
0.5                            0.11993521647676 77.3848575512495 0.992397949662599 -12.4320636866256 0.992397949662599 -12.4320636866256 0.11993521647676 77.3848575512495 
! Gamma         0                0                0                0                
! Port Impedance         50               0                50               0                
0.52                           0.124596941234225 76.8968631808144 0.991816961530677 -12.9238513775353 0.991816961530677 -12.9238513775353 0.124596941234225 76.8968631808145 
! Gamma         0                0                0                0                
! Port Impedance         50               0                50               0                
0.54                           0.129243821256756 76.4092393985369 0.991215823971281 -13.4150488644813 0.991215823971281 -13.4150488644813 0.129243821256756 76.409239398537  
! Gamma         0                0                0                0                
! Port Impedance         50               0                50               0                
0.56                           0.133875373536717 75.9220260027868 0.990594768133211 -13.9056370989959 0.990594768133212 -13.9056370989959 0.133875373536716 75.9220260027867 
! Gamma         0                0                0                0                
! Port Impedance         50               0                50               0                
0.58                           0.138491121480055 75.4352599310292 0.989954032500275 -14.3955972585132 0.989954032500275 -14.3955972585132 0.138491121480055 75.4352599310292 
! Gamma         0                0                0                0                
! Port Impedance         50               0                50               0                
0.6                            0.143090595186574 74.9489756613522 0.989293862634439 -14.8849107595298 0.989293862634439 -14.8849107595298 0.143090595186574 74.9489756613521 
! Gamma         0                0                0                0                
! Port Impedance         50               0                50               0                
0.62                           0.147673331706263 74.4632055381656 0.988614510923198 -15.3735592695988 0.988614510923199 -15.3735592695988 0.147673331706263 74.4632055381656 
! Gamma         0                0                0                0                
! Port Impedance         50               0                50               0                
0.64                           0.152238875274387 73.977980038242  0.987916236330203 -15.8615247183155 0.987916236330203 -15.8615247183155 0.152238875274387 73.9779800382421 
! Gamma         0                0                0                0                
! Port Impedance         50               0                50               0                
0.66                           0.156786777527459 73.4933279894393 0.987199304148373 -16.3487893074174 0.987199304148373 -16.3487893074174 0.156786777527458 73.4933279894394 
! Gamma         0                0                0                0                
! Port Impedance         50               0                50               0                
0.68                           0.161316597701807 73.009276751607  0.986463985754992 -16.8353355200988 0.986463985754992 -16.8353355200988 0.161316597701807 73.0092767516071 
! Gamma         0                0                0                0                
! Port Impedance         50               0                50               0                
0.7                            0.165827902816116 72.5258523670578 0.985710558368358 -17.3211461296203 0.985710558368358 -17.3211461296203 0.165827902816116 72.5258523670577 
! Gamma         0                0                0                0                
! Port Impedance         50               0                50               0                
0.72                           0.17032026783907 72.0430796863861 0.984939304805736 -17.8062042072773 0.984939304805735 -17.8062042072773 0.17032026783907 72.0430796863862 
! Gamma         0                0                0                0                
! Port Impedance         50               0                50               0                
0.74                           0.174793275843025 71.5609824741959 0.984150513242415 -18.2904931297815 0.984150513242415 -18.2904931297815 0.174793275843025 71.5609824741959 
! Gamma         0                0                0                0                
! Port Impedance         50               0                50               0                
0.76                           0.179246518144491 71.0795834983668 0.983344476971797 -18.7739965860992 0.983344476971797 -18.7739965860992 0.17924651814449 71.0795834983668 
! Gamma         0                0                0                0                
! Port Impedance         50               0                50               0                
0.78                           0.18367959443207 70.5989046057606 0.982521494166451 -19.2566985837826 0.982521494166451 -19.2566985837826 0.18367959443207 70.5989046057606 
! Gamma         0                0                0                0                
! Port Impedance         50               0                50               0                
0.8                            0.188092112882428 70.118966786704  0.981681867640166 -19.7385834548253 0.981681867640166 -19.7385834548253 0.188092112882428 70.1189667867039 
! Gamma         0                0                0                0                
! Port Impedance         50               0                50               0                
0.82                           0.192483690264758 69.6397902301475 0.980825904611048 -20.2196358610672 0.980825904611048 -20.2196358610672 0.192483690264758 69.6397902301475 
! Gamma         0                0                0                0                
! Port Impedance         50               0                50               0                
0.84                           0.196853952034197 69.1613943710366 0.979953916465746 -20.6998407991732 0.979953916465746 -20.6998407991732 0.196853952034197 69.1613943710366 
! Gamma         0                0                0                0                
! Port Impedance         50               0                50               0                
0.86                           0.201202532414542 68.6837979311665 0.979066218524914 -21.1791836052017 0.979066218524914 -21.1791836052017 0.201202532414542 68.6837979311667 
! Gamma         0                0                0                0                
! Port Impedance         50               0                50               0                
0.88                           0.205529074470642 68.2070189545557 0.978163129810048 -21.6576499587833 0.978163129810047 -21.6576499587833 0.205529074470642 68.2070189545556 
! Gamma         0                0                0                0                
! Port Impedance         50               0                50               0                
0.9                            0.209833230170763 67.7310748382015 0.97724497281182 -22.1352258869222 0.97724497281182 -22.1352258869222 0.209833230170763 67.7310748382016 
! Gamma         0                0                0                0                
! Port Impedance         50               0                50               0                
0.92                           0.214114660439232 67.2559823589334 0.976312073260101 -22.6118977674346 0.976312073260101 -22.6118977674346 0.214114660439232 67.2559823589333 
! Gamma         0                0                0                0                
! Port Impedance         50               0                50               0                
0.94                           0.218373035199632 66.7817576969573 0.975364759895792 -23.0876523320367 0.975364759895792 -23.0876523320367 0.218373035199632 66.7817576969572 
! Gamma         0                0                0                0                
! Port Impedance         50               0                50               0                
0.96                           0.222608033408822 66.308416456594  0.974403364244667 -23.5624766690926 0.974403364244667 -23.5624766690926 0.222608033408822 66.308416456594  
! Gamma         0                0                0                0                
! Port Impedance         50               0                50               0                
0.98                           0.226819343082035 65.8359736846295 0.973428220393384 -24.0363582260329 0.973428220393384 -24.0363582260329 0.226819343082035 65.8359736846295 
! Gamma         0                0                0                0                
! Port Impedance         50               0                50               0                
1                              0.231006661309298 65.3644438866303 0.972439664767834 -24.5092848114535 0.972439664767834 -24.5092848114535 0.231006661309298 65.3644438866303 
! Gamma         0                0                0                0                
! Port Impedance         50               0                50               0                
1.02                           0.235169694263434 64.8938410415261 0.971438035914005 -24.9812445969045 0.971438035914005 -24.9812445969045 0.235169694263435 64.8938410415262 
! Gamma         0                0                0                0                
! Port Impedance         50               0                50               0                
1.04                           0.239308157199873 64.4241786147112 0.97042367428153 -25.4522261183764 0.970423674281531 -25.4522261183764 0.239308157199873 64.4241786147112 
! Gamma         0                0                0                0                
! Port Impedance         50               0                50               0                
1.06                           0.243421774448514 63.9554695698825 0.969396922010085 -25.9222182774943 0.969396922010085 -25.9222182774943 0.243421774448514 63.9554695698825 
! Gamma         0                0                0                0                
! Port Impedance         50               0                50               0                
1.08                           0.247510279397881 63.4877263797981 0.968358122718797 -26.3912103424258 0.968358122718797 -26.3912103424258 0.247510279397881 63.4877263797981 
! Gamma         0                0                0                0                
! Port Impedance         50               0                50               0                
1.1                            0.251573414471811 63.0209610361129 0.967307621298818 -26.8591919485125 0.967307621298818 -26.8591919485125 0.25157341447181 63.0209610361129 
! Gamma         0                0                0                0                
! Port Impedance         50               0                50               0                
1.12                           0.255610931098893 62.5551850584296 0.966245763709233 -27.3261530986329 0.966245763709232 -27.326153098633 0.255610931098893 62.5551850584296 
! Gamma         0                0                0                0                
! Port Impedance         50               0                50               0                
1.14                           0.259622589674926 62.0904095026757 0.965172896776404 -27.7920841633027 0.965172896776404 -27.7920841633027 0.259622589674926 62.0904095026756 
! Gamma         0                0                0                0                
! Port Impedance         50               0                50               0                
1.16                           0.263608159518596 61.6266449689117 0.964089367996954 -28.2569758805222 0.964089367996955 -28.2569758805222 0.263608159518596 61.6266449689116 
! Gamma         0                0                0                0                
! Port Impedance         50               0                50               0                
1.18                           0.267567418820645 61.163901608652  0.962995525344453 -28.7208193553773 0.962995525344453 -28.7208193553773 0.267567418820645 61.163901608652  
! Gamma         0                0                0                0                
! Port Impedance         50               0                50               0                
1.2                            0.27150015458674 60.7021891317736 0.961891717079976 -29.183606059402 0.961891717079976 -29.183606059402 0.27150015458674 60.7021891317736 
! Gamma         0                0                0                0                
! Port Impedance         50               0                50               0                
1.22                           0.2754061625743  60.2415168130775 0.960778291566633 -29.6453278297097 0.960778291566633 -29.6453278297097 0.2754061625743  60.2415168130775 
! Gamma         0                0                0                0                
! Port Impedance         50               0                50               0                
1.24                           0.279285247223508 59.7818934985544 0.959655597088171 -30.1059768679012 0.959655597088172 -30.1059768679012 0.279285247223508 59.7818934985544 
! Gamma         0                0                0                0                
! Port Impedance         50               0                50               0                
1.26                           0.283137221582747 59.3233276114054 0.958523981671765 -30.5655457387563 0.958523981671765 -30.5655457387563 0.283137221582747 59.3233276114054 
! Gamma         0                0                0                0                
! Port Impedance         50               0                50               0                
1.28                           0.286961907228707 58.8658271578559 0.957383792915063 -31.0240273687166 0.957383792915063 -31.0240273687166 0.286961907228707 58.8658271578559 
! Gamma         0                0                0                0                
! Port Impedance         50               0                50               0                
1.3                            0.290759134181381 58.409399732799  0.956235377817596 -31.4814150441676 0.956235377817596 -31.4814150441676 0.290759134181381 58.409399732799  
! Gamma         0                0                0                0                
! Port Impedance         50               0                50               0                
1.32                           0.294528740814206 57.9540525252972 0.955079082616604 -31.9377024095263 0.955079082616604 -31.9377024095263 0.294528740814206 57.9540525252973 
! Gamma         0                0                0                0                
! Port Impedance         50               0                50               0                
1.34                           0.298270573759572 57.499792323971  0.953915252627356 -32.3928834651432 0.953915252627355 -32.3928834651432 0.298270573759573 57.499792323971  
! Gamma         0                0                0                0                
! Port Impedance         50               0                50               0                
1.36                           0.301984487809938 57.0466255222915 0.952744232088016 -32.8469525650237 0.952744232088016 -32.8469525650237 0.301984487809938 57.0466255222915 
! Gamma         0                0                0                0                
! Port Impedance         50               0                50               0                
1.38                           0.305670345814779 56.5945581238025 0.951566364009107 -33.2999044143794 0.951566364009107 -33.2999044143794 0.305670345814779 56.5945581238025 
! Gamma         0                0                0                0                
! Port Impedance         50               0                50               0                
1.4                            0.309328018573606 56.1435957472819 0.950381990027615 -33.7517340670135 0.950381990027615 -33.7517340670135 0.309328018573606 56.1435957472819 
! Gamma         0                0                0                0                
! Port Impedance         50               0                50               0                
1.42                           0.312957384725281 55.6937436318603 0.949191450265755 -34.20243692255  0.949191450265755 -34.20243692255  0.312957384725281 55.6937436318603 
! Gamma         0                0                0                0                
! Port Impedance         50               0                50               0                
1.44                           0.316558330633844 55.2450066421059 0.947995083194441 -34.6520087235113 0.947995083194441 -34.6520087235113 0.316558330633844 55.2450066421059 
! Gamma         0                0                0                0                
! Port Impedance         50               0                50               0                
1.46                           0.320130750271095 54.7973892730859 0.946793225501469 -35.1004455522546 0.946793225501469 -35.1004455522546 0.320130750271095 54.797389273086  
! Gamma         0                0                0                0                
! Port Impedance         50               0                50               0                
1.48                           0.323674545096127 54.3508956554131 0.945586211964421 -35.5477438277708 0.945586211964421 -35.5477438277708 0.323674545096127 54.3508956554131 
! Gamma         0                0                0                0                
! Port Impedance         50               0                50               0                
1.5                            0.327189623932043 53.9055295602822 0.944374375328297 -35.9939003023555 0.944374375328297 -35.9939003023555 0.327189623932043 53.9055295602821 
! Gamma         0                0                0                0                
! Port Impedance         50               0                50               0                
1.52                           0.330675902840062 53.4612944045029 0.943158046187869 -36.4389120581571 0.943158046187869 -36.4389120581571 0.330675902840061 53.4612944045029 
! Gamma         0                0                0                0                
! Port Impedance         50               0                50               0                
1.54                           0.334133304991229 53.0181932555329 0.941937552874754 -36.8827765036105 0.941937552874754 -36.8827765036104 0.334133304991229 53.0181932555329 
! Gamma         0                0                0                0                
! Port Impedance         50               0                50               0                
1.56                           0.337561760535924 52.5762288365134 0.940713221349174 -37.3254913697617 0.940713221349175 -37.3254913697617 0.337561760535924 52.5762288365134 
! Gamma         0                0                0                0                
! Port Impedance         50               0                50               0                
1.58                           0.340961206471381 52.1354035313103 0.939485375096395 -37.7670547064912 0.939485375096395 -37.7670547064912 0.340961206471381 52.1354035313102 
! Gamma         0                0                0                0                
! Port Impedance         50               0                50               0                
1.6                            0.344331586507409 51.695719389562  0.938254335027801 -38.2074648786413 0.938254335027801 -38.2074648786413 0.344331586507409 51.695719389562  
! Gamma         0                0                0                0                
! Port Impedance         50               0                50               0                
1.62                           0.347672850930506 51.2571781317346 0.937020419386593 -38.6467205620557 0.937020419386593 -38.6467205620557 0.347672850930506 51.2571781317347 
! Gamma         0                0                0                0                
! Port Impedance         50               0                50               0                
1.64                           0.350984956466552 50.819781154185  0.935783943658038 -39.0848207395352 0.935783943658038 -39.0848207395352 0.350984956466552 50.819781154185  
! Gamma         0                0                0                0                
! Port Impedance         50               0                50               0                
1.66                           0.354267866142275 50.3835295342308 0.934545220484249 -39.5217646967186 0.93454522048425 -39.5217646967186 0.354267866142275 50.3835295342308 
! Gamma         0                0                0                0                
! Port Impedance         50               0                50               0                
1.68                           0.357521549145648 49.948424035228  0.933304559583443 -39.9575520178925 0.933304559583444 -39.9575520178925 0.357521549145648 49.948424035228  
! Gamma         0                0                0                0                
! Port Impedance         50               0                50               0                
1.7                            0.360745980685405 49.514465111654  0.932062267673608 -40.392182581737 0.932062267673608 -40.392182581737 0.360745980685405 49.514465111654  
! Gamma         0                0                0                0                
! Port Impedance         50               0                50               0                
1.72                           0.363941141849836 49.0816529141945 0.930818648400528 -40.8256565570132 0.930818648400528 -40.8256565570132 0.363941141849836 49.0816529141945 
! Gamma         0                0                0                0                
! Port Impedance         50               0                50               0                
1.74                           0.36710701946503 48.6499872948342 0.929574002270119 -41.2579743981981 0.929574002270119 -41.2579743981981 0.36710701946503 48.6499872948342 
! Gamma         0                0                0                0                
! Port Impedance         50               0                50               0                
1.76                           0.370243605952711 48.2194678119479 0.928328626584971 -41.6891368410721 0.928328626584971 -41.6891368410721 0.370243605952711 48.2194678119479 
! Gamma         0                0                0                0                
! Port Impedance         50               0                50               0                
1.78                           0.373350899187829 47.7900937353904 0.927082815385071 -42.1191448982651 0.927082815385071 -42.1191448982651 0.373350899187829 47.7900937353904 
! Gamma         0                0                0                0                
! Port Impedance         50               0                50               0                
1.8                            0.376428902356048 47.3618640515843 0.925836859392591 -42.5479998547662 0.925836859392592 -42.5479998547662 0.376428902356048 47.3618640515843 
! Gamma         0                0                0                0                
! Port Impedance         50               0                50               0                
1.82                           0.379477623811271 46.9347774686009 0.924591045960701 -42.9757032634016 0.924591045960701 -42.9757032634016 0.379477623811271 46.9347774686009 
! Gamma         0                0                0                0                
! Port Impedance         50               0                50               0                
1.84                           0.382497076933338 46.5088324212344 0.923345659026294 -43.4022569402873 0.923345659026294 -43.4022569402873 0.382497076933338 46.5088324212344 
! Gamma         0                0                0                0                
! Port Impedance         50               0                50               0                
1.86                           0.385487279986029 46.084027076066  0.922100979066577 -43.8276629602593 0.922100979066577 -43.8276629602593 0.385487279986029 46.084027076066  
! Gamma         0                0                0                0                
! Port Impedance         50               0                50               0                
1.88                           0.388448255975488 45.6603593365141 0.920857283059409 -44.2519236522879 0.920857283059409 -44.2519236522879 0.388448255975488 45.6603593365141 
! Gamma         0                0                0                0                
! Port Impedance         50               0                50               0                
1.9                            0.391380032509197 45.237826847871  0.919614844447324 -44.6750415948794 0.919614844447323 -44.6750415948794 0.391380032509197 45.237826847871  
! Gamma         0                0                0                0                
! Port Impedance         50               0                50               0                
1.92                           0.394282641655613 44.8164270023204 0.918373933105141 -45.0970196114701 0.918373933105141 -45.0970196114701 0.394282641655613 44.8164270023204 
! Gamma         0                0                0                0                
! Port Impedance         50               0                50               0                
1.94                           0.39715611980456 44.3961569439357 0.917134815311078 -45.5178607658167 0.917134815311078 -45.5178607658167 0.39715611980456 44.3961569439357 
! Gamma         0                0                0                0                
! Port Impedance         50               0                50               0                
1.96                           0.400000507528507 43.9770135736551 0.915897753721269 -45.9375683573877 0.915897753721269 -45.9375683573877 0.400000507528507 43.9770135736552 
! Gamma         0                0                0                0                
! Port Impedance         50               0                50               0                
1.98                           0.402815849444802 43.5589935542321 0.914663007347607 -46.3561459167588 0.914663007347607 -46.3561459167588 0.402815849444802 43.5589935542321 
! Gamma         0                0                0                0                
! Port Impedance         50               0                50               0                
2                              0.40560219407897 43.1420933151573 0.913430831538803 -46.7735972010168 0.913430831538803 -46.7735972010168 0.40560219407897 43.1420933151573 
! Gamma         0                0                0                0                
! Port Impedance         50               0                50               0                
2.02                           0.408359593729162 42.7263090575516 0.912201477964587 -47.1899261891754 0.912201477964587 -47.1899261891754 0.408359593729162 42.7263090575515 
! Gamma         0                0                0                0                
! Port Impedance         50               0                50               0                
2.04                           0.411088104331828 42.311636759026  0.910975194602945 -47.6051370776066 0.910975194602945 -47.6051370776066 0.411088104331828 42.311636759026  
! Gamma         0                0                0                0                
! Port Impedance         50               0                50               0                
2.06                           0.413787785328706 41.8980721785079 0.909752225730292 -48.0192342754907 0.909752225730292 -48.0192342754907 0.413787785328707 41.8980721785079 
! Gamma         0                0                0                0                
! Port Impedance         50               0                50               0                
2.08                           0.416458699535184 41.4856108610294 0.908532811914511 -48.4322224002884 0.908532811914511 -48.4322224002884 0.416458699535184 41.4856108610294 
! Gamma         0                0                0                0                
! Port Impedance         50               0                50               0                
2.1                            0.419100913010114 41.0742481424775 0.907317190010733 -48.8441062732377 0.907317190010733 -48.8441062732377 0.419100913010114 41.0742481424775 
! Gamma         0                0                0                0                
! Port Impedance         50               0                50               0                
2.12                           0.421714494927138 40.6639791543038 0.906105593159791 -49.2548909148792 0.906105593159791 -49.2548909148792 0.421714494927138 40.6639791543037 
! Gamma         0                0                0                0                
! Port Impedance         50               0                50               0                
2.14                           0.424299517447583 40.2547988281899 0.904898250789234 -49.6645815406116 0.904898250789234 -49.6645815406116 0.424299517447583 40.2547988281899 
! Gamma         0                0                0                0                
! Port Impedance         50               0                50               0                
2.16                           0.426856055594983 39.8467019006694 0.903695388616822 -50.0731835562809 0.903695388616822 -50.0731835562809 0.426856055594982 39.8467019006695 
! Gamma         0                0                0                0                
! Port Impedance         50               0                50               0                
2.18                           0.429384187131277 39.439682917703  0.902497228656398 -50.4807025538053 0.902497228656398 -50.4807025538053 0.429384187131277 39.439682917703  
! Gamma         0                0                0                0                
! Port Impedance         50               0                50               0                
2.2                            0.431883992434725 39.0337362392042 0.901303989226057 -50.8871443068384 0.901303989226057 -50.8871443068384 0.431883992434724 39.0337362392042 
! Gamma         0                0                0                0                
! Port Impedance         50               0                50               0                
2.22                           0.434355554379589 38.6288560435169 0.900115884958509 -51.2925147664728 0.900115884958509 -51.2925147664727 0.434355554379589 38.6288560435169 
! Gamma         0                0                0                0                
! Port Impedance         50               0                50               0                
2.24                           0.436798958217622 38.2250363318399 0.898933126813555 -51.6968200569858 0.898933126813555 -51.6968200569858 0.436798958217621 38.2250363318399 
! Gamma         0                0                0                0                
! Port Impedance         50               0                50               0                
2.26                           0.439214291461375 37.8222709325996 0.897755922092575 -52.1000664716307 0.897755922092575 -52.1000664716307 0.439214291461374 37.8222709325996 
! Gamma         0                0                0                0                
! Port Impedance         50               0                50               0                
2.28                           0.441601643769392 37.4205535057678 0.896584474454959 -52.5022604684732 0.896584474454959 -52.5022604684732 0.441601643769392 37.4205535057678 
! Gamma         0                0                0                0                
! Port Impedance         50               0                50               0                
2.3                            0.443961106833286 37.0198775471239 0.895418983936374 -52.9034086662766 0.895418983936374 -52.9034086662766 0.443961106833285 37.0198775471239 
! Gamma         0                0                0                0                
! Port Impedance         50               0                50               0                
2.32                           0.446292774266727 36.6202363924612 0.894259646968791 -53.3035178404368 0.894259646968791 -53.3035178404367 0.446292774266727 36.6202363924612 
! Gamma         0                0                0                0                
! Port Impedance         50               0                50               0                
2.34                           0.448596741496385 36.2216232217341 0.893106656402192 -53.7025949189675 0.893106656402192 -53.7025949189675 0.448596741496385 36.2216232217341 
! Gamma         0                0                0                0                
! Port Impedance         50               0                50               0                
2.36                           0.450873105654804 35.8240310631473 0.891960201527861 -54.1006469785398 0.89196020152786 -54.1006469785398 0.450873105654804 35.8240310631473 
! Gamma         0                0                0                0                
! Port Impedance         50               0                50               0                
2.38                           0.453121965475268 35.4274527971854 0.890820468103187 -54.4976812405736 0.890820468103187 -54.4976812405736 0.453121965475268 35.4274527971854 
! Gamma         0                0                0                0                
! Port Impedance         50               0                50               0                
2.4                            0.455343421188625 35.0318811605809 0.889687638377908 -54.8937050673852 0.889687638377908 -54.8937050673852 0.455343421188625 35.0318811605809 
! Gamma         0                0                0                0                
! Port Impedance         50               0                50               0                
2.42                           0.457537574422114 34.6373087502218 0.888561891121686 -55.2887259583913 0.888561891121686 -55.2887259583913 0.457537574422115 34.6373087502218 
! Gamma         0                0                0                0                
! Port Impedance         50               0                50               0                
2.44                           0.459704528100181 34.2437280269967 0.887443401652977 -55.6827515463687 0.887443401652978 -55.6827515463687 0.459704528100181 34.2437280269967 
! Gamma         0                0                0                0                
! Port Impedance         50               0                50               0                
2.46                           0.461844386347285 33.851131319577  0.886332341869093 -56.0757895937734 0.886332341869093 -56.0757895937734 0.461844386347285 33.851131319577  
! Gamma         0                0                0                0                
! Port Impedance         50               0                50               0                
2.48                           0.463957254392711 33.4595108281368 0.885228880277385 -56.4678479891175 0.885228880277385 -56.4678479891175 0.463957254392711 33.4595108281368 
! Gamma         0                0                0                0                
! Port Impedance         50               0                50               0                
2.5                            0.466043238477373 33.0688586280077 0.884133182027493 -56.8589347434056 0.884133182027493 -56.8589347434057 0.466043238477374 33.0688586280078 
! Gamma         0                0                0                0                
! Port Impedance         50               0                50               0                
2.52                           0.468102445762611 32.6791666732714 0.883045408944571 -57.2490579866318 0.883045408944571 -57.2490579866318 0.468102445762611 32.6791666732714 
! Gamma         0                0                0                0                
! Port Impedance         50               0                50               0                
2.54                           0.470134984240968 32.2904268002859 0.881965719563434 -57.6382259643363 0.881965719563434 -57.6382259643363 0.470134984240968 32.290426800286  
! Gamma         0                0                0                0                
! Port Impedance         50               0                50               0                
2.56                           0.472140962648953 31.9026307311494 0.880894269163552 -58.0264470342238 0.880894269163552 -58.0264470342238 0.472140962648953 31.9026307311494 
! Gamma         0                0                0                0                
! Port Impedance         50               0                50               0                
2.58                           0.474120490381769 31.515770077097  0.879831209804836 -58.4137296628425 0.879831209804836 -58.4137296628425 0.474120490381768 31.515770077097  
! Gamma         0                0                0                0                
! Port Impedance         50               0                50               0                
2.6                            0.476073677409988 31.1298363418347 0.878776690364135 -58.8000824223256 0.878776690364135 -58.8000824223256 0.476073677409988 31.1298363418347 
! Gamma         0                0                0                0                
! Port Impedance         50               0                50               0                
2.62                           0.478000634198188 30.7448209248076 0.877730856572408 -59.1855139871934 0.877730856572408 -59.1855139871934 0.478000634198188 30.7448209248075 
! Gamma         0                0                0                0                
! Port Impedance         50               0                50               0                
2.64                           0.479901471625499 30.3607151244022 0.87669385105249 -59.5700331312187 0.87669385105249 -59.5700331312187 0.479901471625499 30.3607151244022 
! Gamma         0                0                0                0                
! Port Impedance         50               0                50               0                
2.66                           0.481776300908071 29.9775101410861 0.875665813357402 -59.9536487243533 0.875665813357402 -59.9536487243533 0.481776300908072 29.9775101410861 
! Gamma         0                0                0                0                
! Port Impedance         50               0                50               0                
2.68                           0.483625233523436 29.595197080481  0.874646880009155 -60.3363697297166 0.874646880009155 -60.3363697297166 0.483625233523437 29.595197080481  
! Gamma         0                0                0                0                
! Port Impedance         50               0                50               0                
2.7                            0.48544838113674 29.2137669563719 0.873637184537989 -60.7182052006471 0.873637184537989 -60.7182052006471 0.48544838113674 29.2137669563719 
! Gamma         0                0                0                0                
! Port Impedance         50               0                50               0                
2.72                           0.487245855528833 28.8332106936521 0.872636857521982 -61.0991642778149 0.872636857521982 -61.0991642778149 0.487245855528833 28.8332106936521 
! Gamma         0                0                0                0                
! Port Impedance         50               0                50               0                
2.74                           0.489017768526197 28.4535191312042 0.871646026627009 -61.4792561863959 0.871646026627009 -61.4792561863959 0.489017768526197 28.4535191312042 
! Gamma         0                0                0                0                
! Port Impedance         50               0                50               0                
2.76                           0.490764231932679 28.0746830247167 0.870664816646971 -61.8584902333089 0.870664816646971 -61.8584902333089 0.490764231932679 28.0746830247167 
! Gamma         0                0                0                0                
! Port Impedance         50               0                50               0                
2.78                           0.492485357463012 27.6966930494382 0.869693349544265 -62.236875804512 0.869693349544265 -62.2368758045121 0.492485357463012 27.6966930494382 
! Gamma         0                0                0                0                
! Port Impedance         50               0                50               0                
2.8                            0.494181256678109 27.3195398028677 0.86873174449044 -62.614422362362 0.868731744490441 -62.614422362362 0.494181256678109 27.3195398028677 
! Gamma         0                0                0                0                
! Port Impedance         50               0                50               0                
2.82                           0.495852040922083 26.9432138073831 0.867780117907003 -62.9911394430328 0.867780117907003 -62.9911394430328 0.495852040922083 26.9432138073831 
! Gamma         0                0                0                0                
! Port Impedance         50               0                50               0                
2.84                           0.497497821261   26.5677055128072 0.866838583506326 -63.3670366539952 0.866838583506326 -63.3670366539952 0.497497821260999 26.5677055128073 
! Gamma         0                0                0                0                
! Port Impedance         50               0                50               0                
2.86                           0.499118708423294 26.1930052989124 0.865907252332618 -63.7421236715561 0.865907252332618 -63.7421236715561 0.499118708423293 26.1930052989125 
! Gamma         0                0                0                0                
! Port Impedance         50               0                50               0                
2.88                           0.500714812741869 25.8191034778642 0.864986232802918 -64.116410238457 0.864986232802917 -64.116410238457 0.500714812741869 25.8191034778642 
! Gamma         0                0                0                0                
! Port Impedance         50               0                50               0                
2.9                            0.50228624409782 25.4459902966044 0.864075630748076 -64.4899061615315 0.864075630748075 -64.4899061615315 0.50228624409782 25.4459902966043 
! Gamma         0                0                0                0                
! Port Impedance         50               0                50               0                
2.92                           0.503833111865759 25.0736559391744 0.863175549453683 -64.8626213094214 0.863175549453683 -64.8626213094214 0.503833111865759 25.0736559391744 
! Gamma         0                0                0                0                
! Port Impedance         50               0                50               0                
2.94                           0.505355524860731 24.7020905289797 0.862286089700919 -65.2345656103496 0.862286089700919 -65.2345656103496 0.505355524860731 24.7020905289797 
! Gamma         0                0                0                0                
! Port Impedance         50               0                50               0                
2.96                           0.506853591286668 24.3312841309953 0.861407349807275 -65.6057490499519 0.861407349807275 -65.6057490499519 0.506853591286668 24.3312841309953 
! Gamma         0                0                0                0                
! Port Impedance         50               0                50               0                
2.98                           0.508327418686368 23.9612267539135 0.860539425667133 -65.9761816691633 0.860539425667133 -65.9761816691633 0.508327418686368 23.9612267539135 
! Gamma         0                0                0                0                
! Port Impedance         50               0                50               0                
3                              0.50977711389297 23.5919083522351 0.859682410792162 -66.3458735621618 0.859682410792161 -66.3458735621618 0.50977711389297 23.5919083522351 
! Gamma         0                0                0                0                
! Port Impedance         50               0                50               0                
3.02                           0.511202782982888 23.223318828303  0.858836396351503 -66.7148348743666 0.858836396351503 -66.7148348743666 0.511202782982887 23.223318828303  
! Gamma         0                0                0                0                
! Port Impedance         50               0                50               0                
3.04                           0.512604531230177 22.8554480342817 0.85800147121172 -67.0830758004914 0.85800147121172 -67.0830758004914 0.512604531230177 22.8554480342817 
! Gamma         0                0                0                0                
! Port Impedance         50               0                50               0                
3.06                           0.513982463062314 22.4882857740804 0.857177721976483 -67.4506065826506 0.857177721976483 -67.4506065826507 0.513982463062314 22.4882857740804 
! Gamma         0                0                0                0                
! Port Impedance         50               0                50               0                
3.08                           0.515336682017341 22.1218218052232 0.85636523302596 -67.8174375085198 0.85636523302596 -67.8174375085198 0.515336682017341 22.1218218052233 
! Gamma         0                0                0                0                
! Port Impedance         50               0                50               0                
3.1                            0.516667290702368 21.7560458406655 0.8555640865559  -68.1835789095474 0.8555640865559  -68.1835789095474 0.516667290702368 21.7560458406655 
! Gamma         0                0                0                0                
! Port Impedance         50               0                50               0                
3.12                           0.517974390753381 21.3909475505575 0.854774362616377 -68.5490411592187 0.854774362616377 -68.5490411592187 0.51797439075338 21.3909475505575 
! Gamma         0                0                0                0                
! Port Impedance         50               0                50               0                
3.14                           0.519258082796346 21.026516563957  0.853996139150168 -68.9138346713706 0.853996139150167 -68.9138346713706 0.519258082796346 21.026516563957  
! Gamma         0                0                0                0                
! Port Impedance         50               0                50               0                
3.16                           0.520518466409574 20.6627424704905 0.853229492030764 -69.2779698985556 0.853229492030763 -69.2779698985556 0.520518466409574 20.6627424704905 
! Gamma         0                0                0                0                
! Port Impedance         50               0                50               0                
3.18                           0.521755640087308 20.2996148219648 0.852474495099971 -69.6414573304556 0.852474495099971 -69.6414573304556 0.521755640087308 20.2996148219649 
! Gamma         0                0                0                0                
! Port Impedance         50               0                50               0                
3.2                            0.522969701204518 19.9371231339296 0.851731220205096 -70.0043074923443 0.851731220205096 -70.0043074923443 0.522969701204518 19.9371231339295 
! Gamma         0                0                0                0                
! Port Impedance         50               0                50               0                
3.22                           0.52416074598287 19.5752568871908 0.850999737235695 -70.3665309435964 0.850999737235695 -70.3665309435964 0.52416074598287 19.5752568871907 
! Gamma         0                0                0                0                
! Port Impedance         50               0                50               0                
3.24                           0.525328869457836 19.214005529278  0.850280114159872 -70.7281382762438 0.850280114159872 -70.7281382762438 0.525328869457836 19.214005529278  
! Gamma         0                0                0                0                
! Port Impedance         50               0                50               0                
3.26                           0.526474165446921 18.8533584758646 0.849572417060102 -71.0891401135777 0.849572417060102 -71.0891401135777 0.526474165446921 18.8533584758646 
! Gamma         0                0                0                0                
! Port Impedance         50               0                50               0                
3.28                           0.527596726518992 18.4933051121416 0.848876710168579 -71.4495471087958 0.848876710168579 -71.4495471087958 0.527596726518991 18.4933051121416 
! Gamma         0                0                0                0                
! Port Impedance         50               0                50               0                
3.3                            0.528696643964646 18.1338347941483 0.848193055902054 -71.8093699436935 0.848193055902053 -71.8093699436935 0.528696643964646 18.1338347941483 
! Gamma         0                0                0                0                
! Port Impedance         50               0                50               0                
3.32                           0.52977400776764 17.7749368500578 0.847521514896173 -72.1686193273979 0.847521514896173 -72.1686193273979 0.52977400776764 17.7749368500578 
! Gamma         0                0                0                0                
! Port Impedance         50               0                50               0                
3.34                           0.530828906577307 17.4166005814197 0.846862146039283 -72.5273059951453 0.846862146039283 -72.5273059951453 0.530828906577307 17.4166005814197 
! Gamma         0                0                0                0                
! Port Impedance         50               0                50               0                
3.36                           0.531861427681969 17.0588152643617 0.846215006505704 -72.8854407070988 0.846215006505704 -72.8854407070988 0.531861427681969 17.0588152643617 
! Gamma         0                0                0                0                
! Port Impedance         50               0                50               0                
3.38                           0.532871656983301 16.7015701507488 0.845580151788453 -73.2430342472083 0.845580151788453 -73.2430342472083 0.5328716569833  16.7015701507488 
! Gamma         0                0                0                0                
! Port Impedance         50               0                50               0                
3.4                            0.533859678971626 16.3448544693027 0.844957635731412 -73.6000974221083 0.844957635731412 -73.6000974221083 0.533859678971626 16.3448544693027 
! Gamma         0                0                0                0                
! Port Impedance         50               0                50               0                
3.42                           0.534825576702118 15.9886574266822 0.844347510560929 -73.9566410600566 0.844347510560929 -73.9566410600566 0.534825576702118 15.9886574266822 
! Gamma         0                0                0                0                
! Port Impedance         50               0                50               0                
3.44                           0.535769431771884 15.6329682085246 0.843749826916835 -74.3126760099092 0.843749826916835 -74.3126760099092 0.535769431771885 15.6329682085246 
! Gamma         0                0                0                0                
! Port Impedance         50               0                50               0                
3.46                           0.536691324297908 15.2777759804496 0.84316463388289 -74.6682131401338 0.84316463388289 -74.6682131401338 0.536691324297908 15.2777759804496 
! Gamma         0                0                0                0                
! Port Impedance         50               0                50               0                
3.48                           0.537591332895819 14.9230698890267 0.842591979016621 -75.023263337859 0.842591979016622 -75.023263337859 0.53759133289582 14.9230698890267 
! Gamma         0                0                0                0                
! Port Impedance         50               0                50               0                
3.5                            0.538469534659483 14.5688390627065 0.842031908378571 -75.3778375079588 0.842031908378571 -75.3778375079588 0.538469534659483 14.5688390627066 
! Gamma         0                0                0                0                
! Port Impedance         50               0                50               0                
3.52                           0.539326005141365 14.2150726127177 0.841484466560929 -75.7319465721716 0.841484466560929 -75.7319465721716 0.539326005141365 14.2150726127177 
! Gamma         0                0                0                0                
! Port Impedance         50               0                50               0                
3.54                           0.540160818333675 13.8617596339289 0.840949696715564 -76.0856014682535 0.840949696715564 -76.0856014682535 0.540160818333675 13.8617596339289 
! Gamma         0                0                0                0                
! Port Impedance         50               0                50               0                
3.56                           0.540974046650241 13.5088892056786 0.840427640581421 -76.4388131491637 0.840427640581421 -76.4388131491637 0.540974046650241 13.5088892056786 
! Gamma         0                0                0                0                
! Port Impedance         50               0                50               0                
3.58                           0.541765760909115 13.1564503925721 0.839918338511302 -76.7915925822822 0.839918338511301 -76.7915925822822 0.541765760909115 13.1564503925721 
! Gamma         0                0                0                0                
! Port Impedance         50               0                50               0                
3.6                            0.542536030315872 12.804432245247  0.839421829498017 -77.1439507486586 0.839421829498017 -77.1439507486586 0.542536030315871 12.804432245247  
! Gamma         0                0                0                0                
! Port Impedance         50               0                50               0                
3.62                           0.543284922447593 12.4528238011088 0.838938151199899 -77.4958986422909 0.838938151199898 -77.4958986422909 0.543284922447594 12.4528238011088 
! Gamma         0                0                0                0                
! Port Impedance         50               0                50               0                
3.64                           0.544012503237516 12.1016140850361 0.838467339965677 -77.8474472694337 0.838467339965677 -77.8474472694337 0.544012503237517 12.1016140850361 
! Gamma         0                0                0                0                
! Port Impedance         50               0                50               0                
3.66                           0.54471883696031 11.7507921100576 0.838009430858716 -78.1986076479356 0.838009430858716 -78.1986076479356 0.54471883696031 11.7507921100576 
! Gamma         0                0                0                0                
! Port Impedance         50               0                50               0                
3.68                           0.545403986217987 11.4003468780007 0.837564457680599 -78.5493908066029 0.837564457680599 -78.5493908066029 0.545403986217987 11.4003468780007 
! Gamma         0                0                0                0                
! Port Impedance         50               0                50               0                
3.7                            0.54606801192642 11.0502673801135 0.837132452994069 -78.8998077845917 0.837132452994069 -78.8998077845917 0.54606801192642 11.0502673801135 
! Gamma         0                0                0                0                
! Port Impedance         50               0                50               0                
3.72                           0.546710973302432 10.7005425976602 0.836713448145317 -79.2498696308249 0.836713448145318 -79.2498696308249 0.546710973302431 10.7005425976602 
! Gamma         0                0                0                0                
! Port Impedance         50               0                50               0                
3.74                           0.547332927851468 10.3511615024914 0.836307473285614 -79.5995874034346 0.836307473285614 -79.5995874034346 0.547332927851467 10.3511615024914 
! Gamma         0                0                0                0                
! Port Impedance         50               0                50               0                
3.76                           0.547933931355816 10.0021130575896 0.835914557392283 -79.9489721692291 0.835914557392284 -79.9489721692291 0.547933931355816 10.0021130575896 
! Gamma         0                0                0                0                
! Port Impedance         50               0                50               0                
3.78                           0.548514037863361 9.65338621759122 0.835534728289024 -80.2980350031836 0.835534728289024 -80.2980350031836 0.548514037863362 9.65338621759121 
! Gamma         0                0                0                0                
! Port Impedance         50               0                50               0                
3.8                            0.549073299676863 9.30496992928558 0.83516801266556 -80.6467869879526 0.83516801266556 -80.6467869879526 0.549073299676863 9.30496992928558 
! Gamma         0                0                0                0                
! Port Impedance         50               0                50               0                
3.82                           0.549611767343737 8.95685313209219 0.834814436096642 -80.9952392134054 0.834814436096642 -80.9952392134054 0.549611767343737 8.9568531320922  
! Gamma         0                0                0                0                
! Port Impedance         50               0                50               0                
3.84                           0.550129489646329 8.60902475851628 0.834474023060367 -81.3434027761816 0.834474023060367 -81.3434027761816 0.55012948964633 8.60902475851628 
! Gamma         0                0                0                0                
! Port Impedance         50               0                50               0                
3.86                           0.550626513592663 8.26147373458439 0.834146796955853 -81.6912887792681 0.834146796955853 -81.6912887792681 0.550626513592663 8.26147373458439 
! Gamma         0                0                0                0                
! Port Impedance         50               0                50               0                
3.88                           0.551102884407653 7.91418898026019 0.833832780120234 -82.0389083315939 0.833832780120234 -82.0389083315939 0.551102884407653 7.91418898026019 
! Gamma         0                0                0                0                
! Port Impedance         50               0                50               0                
3.9                            0.551558645524769 7.56715940984144 0.833531993844988 -82.3862725476454 0.833531993844988 -82.3862725476454 0.551558645524769 7.56715940984144 
! Gamma         0                0                0                0                
! Port Impedance         50               0                50               0                
3.92                           0.551993838578133 7.22037393233908 0.833244458391608 -82.733392547098 0.833244458391608 -82.733392547098 0.551993838578133 7.22037393233909 
! Gamma         0                0                0                0                
! Port Impedance         50               0                50               0                
3.94                           0.552408503395047 6.87382145183917 0.83297019300659 -83.080279454466 0.83297019300659 -83.080279454466 0.552408503395047 6.87382145183917 
! Gamma         0                0                0                0                
! Port Impedance         50               0                50               0                
3.96                           0.552802677988931 6.52749086784833 0.832709215935766 -83.4269443987675 0.832709215935766 -83.4269443987675 0.552802677988931 6.52749086784832 
! Gamma         0                0                0                0                
! Port Impedance         50               0                50               0                
3.98                           0.553176398552667 6.18137107562352 0.832461544437956 -83.7733985132068 0.832461544437956 -83.7733985132068 0.553176398552667 6.18137107562353 
! Gamma         0                0                0                0                
! Port Impedance         50               0                50               0                
4                              0.553529699452331 5.83545096648729 0.832227194797955 -84.119652934869 0.832227194797955 -84.119652934869 0.553529699452331 5.83545096648729 
! Gamma         0                0                0                0                
! Port Impedance         50               0                50               0                
4.02                           0.553862613221315 5.48971942812857 0.832006182338853 -84.4657188044309 0.832006182338853 -84.4657188044309 0.553862613221315 5.48971942812857 
! Gamma         0                0                0                0                
! Port Impedance         50               0                50               0                
4.04                           0.554175170554814 5.14416534489061 0.831798521433677 -84.8116072658839 0.831798521433678 -84.8116072658839 0.554175170554814 5.14416534489061 
! Gamma         0                0                0                0                
! Port Impedance         50               0                50               0                
4.06                           0.554467400304685 4.79877759804602 0.831604225516371 -85.1573294662692 0.831604225516371 -85.1573294662692 0.554467400304686 4.79877759804602 
! Gamma         0                0                0                0                
! Port Impedance         50               0                50               0                
4.08                           0.554739329474658 4.45354506606052 0.831423307092098 -85.5028965554259 0.831423307092098 -85.5028965554259 0.554739329474658 4.45354506606052 
! Gamma         0                0                0                0                
! Port Impedance         50               0                50               0                
4.1                            0.554990983215892 4.10845662484527 0.831255777746875 -85.8483196857483 0.831255777746875 -85.8483196857483 0.554990983215892 4.10845662484527 
! Gamma         0                0                0                0                
! Port Impedance         50               0                50               0                
4.12                           0.55522238482288 3.76350114799935 0.831101648156538 -86.1936100119553 0.831101648156538 -86.1936100119553 0.55522238482288 3.76350114799935 
! Gamma         0                0                0                0                
! Port Impedance         50               0                50               0                
4.14                           0.555433555729683 3.41866750704263 0.830960928095037 -86.5387786908674 0.830960928095037 -86.5387786908674 0.555433555729684 3.41866750704263 
! Gamma         0                0                0                0                
! Port Impedance         50               0                50               0                
4.16                           0.555624515506494 3.07394457163999 0.830833626442054 -86.8838368811939 0.830833626442054 -86.8838368811939 0.555624515506494 3.07394457163999 
! Gamma         0                0                0                0                
! Port Impedance         50               0                50               0                
4.18                           0.555795281856519 2.72932120981757 0.830719751189961 -87.2287957433271 0.830719751189961 -87.2287957433271 0.555795281856519 2.72932120981757 
! Gamma         0                0                0                0                
! Port Impedance         50               0                50               0                
4.2                            0.555945870613183 2.38478628817188 0.830619309450098 -87.5736664391441 0.830619309450099 -87.5736664391441 0.555945870613183 2.38478628817189 
! Gamma         0                0                0                0                
! Port Impedance         50               0                50               0                
4.22                           0.556076295737639 2.04032867207241 0.830532307458388 -87.9184601318152 0.830532307458388 -87.9184601318152 0.55607629573764 2.0403286720724  
! Gamma         0                0                0                0                
! Port Impedance         50               0                50               0                
4.24                           0.556186569316598 1.69593722585859 0.830458750580277 -88.2631879856174 0.830458750580277 -88.2631879856174 0.556186569316598 1.69593722585859 
! Gamma         0                0                0                0                
! Port Impedance         50               0                50               0                
4.26                           0.556276701560443 1.35160081303182 0.830398643315003 -88.607861165754 0.830398643315003 -88.607861165754 0.556276701560444 1.35160081303182 
! Gamma         0                0                0                0                
! Port Impedance         50               0                50               0                
4.28                           0.556346700801667 1.00730829644323 0.830351989299206 -88.952490838177 0.830351989299206 -88.952490838177 0.556346700801667 1.00730829644323 
! Gamma         0                0                0                0                
! Port Impedance         50               0                50               0                
4.3                            0.556396573493588 0.663048538477929 0.830318791309849 -89.2970881694146 0.830318791309849 -89.2970881694146 0.556396573493588 0.663048538477929 
! Gamma         0                0                0                0                
! Port Impedance         50               0                50               0                
4.32                           0.556426324209376 0.318810401236689 0.830299051266489 -89.6416643264005 0.83029905126649 -89.6416643264005 0.556426324209376 0.318810401236689 
! Gamma         0                0                0                0                
! Port Impedance         50               0                50               0                
4.34                           0.556435955641366 -0.0254172532845325 0.830292770232865 -89.9862304763052 0.830292770232865 -89.9862304763052 0.556435955641366 -0.0254172532845325 
! Gamma         0                0                0                0                
! Port Impedance         50               0                50               0                
4.36                           0.556425468600663 -0.369645563016231 0.830299948417821 -90.3307977863695 0.830299948417821 -90.3307977863695 0.556425468600663 -0.369645563016231 
! Gamma         0                0                0                0                
! Port Impedance         50               0                50               0                
4.38                           0.556394862017046 -0.713885665637542 0.830320585175559 -90.6753774237379 0.830320585175559 -90.6753774237379 0.556394862017046 -0.713885665637542 
! Gamma         0                0                0                0                
! Port Impedance         50               0                50               0                
4.4                            0.556344132939158 -1.05814869839822 0.830354679005224 -91.019980555292 0.830354679005224 -91.019980555292 0.556344132939158 -1.05814869839822 
! Gamma         0                0                0                0                
! Port Impedance         50               0                50               0                
4.42                           0.556273276534989 -1.40244579793958 0.830402227549818 -91.3646183474833 0.830402227549818 -91.3646183474833 0.556273276534989 -1.40244579793958 
! Gamma         0                0                0                0                
! Port Impedance         50               0                50               0                
4.44                           0.556182286092658 -1.74678810011388 0.830463227594438 -91.7093019661643 0.830463227594439 -91.7093019661643 0.556182286092657 -1.74678810011388 
! Gamma         0                0                0                0                
! Port Impedance         50               0                50               0                
4.46                           0.556071153021481 -2.09118673980118 0.830537675063861 -92.0540425764175 0.830537675063861 -92.0540425764175 0.556071153021481 -2.09118673980118 
! Gamma         0                0                0                0                
! Port Impedance         50               0                50               0                
4.48                           0.555939866853341 -2.43565285072289 0.83062556501944 -92.3988513423805 0.83062556501944 -92.3988513423805 0.555939866853341 -2.43565285072289 
! Gamma         0                0                0                0                
! Port Impedance         50               0                50               0                
4.5                            0.555788415244357 -2.78019756525174 0.830726891655342 -92.743739427069 0.830726891655341 -92.743739427069 0.555788415244357 -2.78019756525174 
! Gamma         0                0                0                0                
! Port Impedance         50               0                50               0                
4.52                           0.55561678397685 -3.12483201421677 0.830841648294115 -93.0887179921935 0.830841648294114 -93.0887179921935 0.55561678397685 -3.12483201421677 
! Gamma         0                0                0                0                
! Port Impedance         50               0                50               0                
4.54                           0.55542495696162 -3.46956732670307 0.830969827381581 -93.4337981979725 0.830969827381581 -93.4337981979725 0.55542495696162 -3.46956732670307 
! Gamma         0                0                0                0                
! Port Impedance         50               0                50               0                
4.56                           0.555212916240525 -3.81441462984537 0.831111420481064 -93.778991202938 0.831111420481064 -93.778991202938 0.555212916240524 -3.81441462984537 
! Gamma         0                0                0                0                
! Port Impedance         50               0                50               0                
4.58                           0.554980641989379 -4.15938504861462 0.831266418266942 -94.1243081637359 0.831266418266942 -94.1243081637359 0.554980641989379 -4.15938504861462 
! Gamma         0                0                0                0                
! Port Impedance         50               0                50               0                
4.6                            0.554728112521166 -4.50448970559705 0.831434810517536 -94.4697602349178 0.831434810517537 -94.4697602349178 0.554728112521166 -4.50448970559705 
! Gamma         0                0                0                0                
! Port Impedance         50               0                50               0                
4.62                           0.554455304289574 -4.8497397207648 0.831616586107323 -94.8153585687256 0.831616586107323 -94.8153585687256 0.554455304289574 -4.8497397207648 
! Gamma         0                0                0                0                
! Port Impedance         50               0                50               0                
4.64                           0.554162191892865 -5.19514621123728 0.831811732998481 -95.1611143148661 0.831811732998481 -95.1611143148661 0.554162191892865 -5.19514621123728 
! Gamma         0                0                0                0                
! Port Impedance         50               0                50               0                
4.66                           0.553848748078076 -5.54072029103278 0.832020238231767 -95.507038620277 0.832020238231767 -95.507038620277 0.553848748078076 -5.54072029103278 
! Gamma         0                0                0                0                
! Port Impedance         50               0                50               0                
4.68                           0.55351494374556 -5.88647307080929 0.832242087916716 -95.853142628882 0.832242087916716 -95.853142628882 0.55351494374556 -5.88647307080929 
! Gamma         0                0                0                0                
! Port Impedance         50               0                50               0                
4.7                            0.553160747953885 -6.23241565759388 0.832477267221184 -96.1994374813345 0.832477267221184 -96.1994374813345 0.553160747953885 -6.23241565759388 
! Gamma         0                0                0                0                
! Port Impedance         50               0                50               0                
4.72                           0.552786127925084 -6.57855915449991 0.832725760360204 -96.5459343147499 0.832725760360204 -96.5459343147499 0.552786127925085 -6.57855915449991 
! Gamma         0                0                0                0                
! Port Impedance         50               0                50               0                
4.74                           0.552391049050278 -6.92491466043116 0.832987550584185 -96.892644262425 0.832987550584185 -96.892644262425 0.552391049050277 -6.92491466043117 
! Gamma         0                0                0                0                
! Port Impedance         50               0                50               0                
4.76                           0.551975474895663 -7.27149326977238 0.833262620166438 -97.2395784535435 0.833262620166438 -97.2395784535435 0.551975474895662 -7.27149326977238 
! Gamma         0                0                0                0                
! Port Impedance         50               0                50               0                
4.78                           0.551539367208895 -7.61830607206497 0.833550950390027 -97.5867480128686 0.833550950390027 -97.5867480128686 0.551539367208895 -7.61830607206496 
! Gamma         0                0                0                0                
! Port Impedance         50               0                50               0                
4.8                            0.551082685925865 -7.96536415166769 0.83385252153396 -97.9341640604189 0.83385252153396 -97.9341640604189 0.551082685925865 -7.96536415166769 
! Gamma         0                0                0                0                
! Port Impedance         50               0                50               0                
4.82                           0.550605389177875 -8.31267858740095 0.834167312858701 -98.2818377111297 0.834167312858701 -98.2818377111297 0.550605389177876 -8.31267858740095 
! Gamma         0                0                0                0                
! Port Impedance         50               0                50               0                
4.84                           0.550107433299238 -8.66026045217431 0.834495302591026 -98.6297800744978 0.834495302591026 -98.6297800744978 0.550107433299238 -8.66026045217431 
! Gamma         0                0                0                0                
! Port Impedance         50               0                50               0                
4.86                           0.549588772835299 -9.00812081259623 0.834836467908197 -98.9780022542084 0.834836467908197 -98.9780022542084 0.549588772835299 -9.00812081259623 
! Gamma         0                0                0                0                
! Port Impedance         50               0                50               0                
4.88                           0.549049360550903 -9.35627072856533 0.835190784921481 -99.3265153477441 0.835190784921481 -99.3265153477441 0.549049360550903 -9.35627072856532 
! Gamma         0                0                0                0                
! Port Impedance         50               0                50               0                
4.9                            0.548489147439313 -9.70472125284213 0.835558228658998 -99.675330445975 0.835558228658998 -99.675330445975 0.548489147439313 -9.70472125284213 
! Gamma         0                0                0                0                
! Port Impedance         50               0                50               0                
4.92                           0.547908082731593 -10.0534834306009 0.835938773047902 -100.02445863273 0.835938773047902 -100.02445863273 0.547908082731593 -10.0534834306009 
! Gamma         0                0                0                0                
! Port Impedance         50               0                50               0                
4.94                           0.54730611390647 -10.4025682989604 0.836332390895904 -100.373910984345 0.836332390895904 -100.373910984345 0.54730611390647 -10.4025682989604 
! Gamma         0                0                0                0                
! Port Impedance         50               0                50               0                
4.96                           0.546683186700697 -10.7519868864924 0.836739053872124 -100.723698569194 0.836739053872124 -100.723698569194 0.546683186700697 -10.7519868864924 
! Gamma         0                0                0                0                
! Port Impedance         50               0                50               0                
4.98                           0.546039245119915 -11.1017502127087 0.837158732487291 -101.073832447194 0.837158732487291 -101.073832447194 0.546039245119915 -11.1017502127087 
! Gamma         0                0                0                0                
! Port Impedance         50               0                50               0                
5                              0.545374231450045 -11.4518692875231 0.837591396073275 -101.424323669289 0.837591396073275 -101.424323669289 0.545374231450045 -11.4518692875231 
! Gamma         0                0                0                0                
! Port Impedance         50               0                50               0                
5.02                           0.544688086269221 -11.8023551106905 0.838037012761971 -101.77518327691 0.838037012761971 -101.77518327691 0.544688086269222 -11.8023551106904 
! Gamma         0                0                0                0                
! Port Impedance         50               0                50               0                
5.04                           0.543980748460277 -12.1532186712196 0.838495549463518 -102.12642230141 0.838495549463518 -102.12642230141 0.543980748460277 -12.1532186712196 
! Gamma         0                0                0                0                
! Port Impedance         50               0                50               0                
5.06                           0.543252155223801 -12.5044709467607 0.838966971843871 -102.478051763475 0.838966971843871 -102.478051763475 0.5432521552238  -12.5044709467607 
! Gamma         0                0                0                0                
! Port Impedance         50               0                50               0                
5.08                           0.542502242091793 -12.8561229029657 0.83945124430172 -102.830082672508 0.839451244301721 -102.830082672508 0.542502242091793 -12.8561229029657 
! Gamma         0                0                0                0                
! Port Impedance         50               0                50               0                
5.1                            0.54173094294192 -13.2081854928208 0.839948329944769 -103.182526025983 0.839948329944769 -103.182526025983 0.54173094294192 -13.2081854928208 
! Gamma         0                0                0                0                
! Port Impedance         50               0                50               0                
5.12                           0.540938190012407 -13.5606696559504 0.840458190565357 -103.535392808775 0.840458190565357 -103.535392808775 0.540938190012407 -13.5606696559504 
! Gamma         0                0                0                0                
! Port Impedance         50               0                50               0                
5.14                           0.540123913917558 -13.9135863178917 0.840980786615451 -103.888693992464 0.840980786615451 -103.888693992464 0.540123913917557 -13.9135863178917 
! Gamma         0                0                0                0                
! Port Impedance         50               0                50               0                
5.16                           0.539288043663963 -14.2669463893385 0.841516077181001 -104.242440534598 0.841516077181001 -104.242440534598 0.539288043663962 -14.2669463893385 
! Gamma         0                0                0                0                
! Port Impedance         50               0                50               0                
5.18                           0.538430506667373 -14.6207607653542 0.842064019955653 -104.596643377938 0.842064019955653 -104.596643377938 0.538430506667373 -14.6207607653542 
! Gamma         0                0                0                0                
! Port Impedance         50               0                50               0                
5.2                            0.537551228770294 -14.9750403245523 0.842624571213851 -104.951313449666 0.84262457121385 -104.951313449666 0.537551228770295 -14.9750403245523 
! Gamma         0                0                0                0                
! Port Impedance         50               0                50               0                
5.22                           0.536650134260296 -15.3297959282439 0.843197685783299 -105.30646166056 0.843197685783299 -105.30646166056 0.536650134260296 -15.3297959282439 
! Gamma         0                0                0                0                
! Port Impedance         50               0                50               0                
5.24                           0.535727145889075 -15.6850384195513 0.843783317016822 -105.662098904138 0.843783317016822 -105.662098904138 0.535727145889075 -15.6850384195513 
! Gamma         0                0                0                0                
! Port Impedance         50               0                50               0                
5.26                           0.534782184892288 -16.0407786224866 0.844381416763603 -106.018236055769 0.844381416763603 -106.018236055769 0.534782184892288 -16.0407786224866 
! Gamma         0                0                0                0                
! Port Impedance         50               0                50               0                
5.28                           0.533815171010177 -16.3970273409947 0.844991935339827 -106.374883971745 0.844991935339827 -106.374883971745 0.533815171010177 -16.3970273409947 
! Gamma         0                0                0                0                
! Port Impedance         50               0                50               0                
5.3                            0.532826022509007 -16.7537953579595 0.84561482149872 -106.732053488319 0.84561482149872 -106.732053488319 0.532826022509007 -16.7537953579595 
! Gamma         0                0                0                0                
! Port Impedance         50               0                50               0                
5.32                           0.531814656203349 -17.1110934341722 0.846250022400001 -107.089755420714 0.846250022400001 -107.089755420714 0.531814656203349 -17.1110934341721 
! Gamma         0                0                0                0                
! Port Impedance         50               0                50               0                
5.34                           0.530780987479216 -17.4689323072614 0.846897483578752 -107.448000562081 0.846897483578752 -107.448000562081 0.530780987479216 -17.4689323072614 
! Gamma         0                0                0                0                
! Port Impedance         50               0                50               0                
5.36                           0.529724930318096 -17.8273226905838 0.847557148913718 -107.806799682429 0.847557148913718 -107.806799682429 0.529724930318097 -17.8273226905838 
! Gamma         0                0                0                0                
! Port Impedance         50               0                50               0                
5.38                           0.528646397321891 -18.1862752720743 0.848228960595036 -108.166163527511 0.848228960595036 -108.166163527511 0.528646397321891 -18.1862752720743 
! Gamma         0                0                0                0                
! Port Impedance         50               0                50               0                
5.4                            0.527545299738792 -18.5458007130544 0.848912859091418 -108.526102817674 0.848912859091418 -108.526102817674 0.527545299738792 -18.5458007130544 
! Gamma         0                0                0                0                
! Port Impedance         50               0                50               0                
5.42                           0.52642154749012 -18.9059096469994 0.849608783116789 -108.886628246665 0.849608783116789 -108.886628246665 0.52642154749012 -18.9059096469994 
! Gamma         0                0                0                0                
! Port Impedance         50               0                50               0                
5.44                           0.525275049198155 -19.2666126782612 0.850316669596388 -109.247750480395 0.850316669596388 -109.247750480395 0.525275049198155 -19.2666126782612 
! Gamma         0                0                0                0                
! Port Impedance         50               0                50               0                
5.46                           0.524105712214974 -19.6279203807479 0.851036453632355 -109.609480155659 0.851036453632355 -109.609480155659 0.524105712214974 -19.6279203807479 
! Gamma         0                0                0                0                
! Port Impedance         50               0                50               0                
5.48                           0.522913442652339 -19.9898432965578 0.851768068468811 -109.971827878823 0.851768068468811 -109.971827878823 0.522913442652339 -19.9898432965578 
! Gamma         0                0                0                0                
! Port Impedance         50               0                50               0                
5.5                            0.521698145412646 -20.3523919345678 0.852511445456439 -110.334804224447 0.852511445456439 -110.334804224447 0.521698145412646 -20.3523919345678 
! Gamma         0                0                0                0                
! Port Impedance         50               0                50               0                
5.52                           0.520459724220976 -20.7155767689743 0.853266514016594 -110.698419733884 0.853266514016594 -110.698419733884 0.520459724220976 -20.7155767689743 
! Gamma         0                0                0                0                
! Port Impedance         50               0                50               0                
5.54                           0.519198081658265 -21.0794082377874 0.854033201604941 -111.062684913819 0.854033201604942 -111.062684913819 0.519198081658265 -21.0794082377874 
! Gamma         0                0                0                0                
! Port Impedance         50               0                50               0                
5.56                           0.517913119195625 -21.4438967412748 0.854811433674654 -111.427610234765 0.854811433674654 -111.427610234765 0.517913119195625 -21.4438967412748 
! Gamma         0                0                0                0                
! Port Impedance         50               0                50               0                
5.58                           0.51660473722985 -21.8090526403574 0.855601133639175 -111.793206129511 0.855601133639175 -111.793206129511 0.51660473722985 -21.8090526403574 
! Gamma         0                0                0                0                
! Port Impedance         50               0                50               0                
5.6                            0.515272835120126 -22.1748862549535 0.85640222283457 -112.159482991525 0.85640222283457 -112.159482991525 0.515272835120126 -22.1748862549535 
! Gamma         0                0                0                0                
! Port Impedance         50               0                50               0                
5.62                           0.513917311225977 -22.5414078622719 0.857214620481485 -112.526451173302 0.857214620481485 -112.526451173302 0.513917311225977 -22.5414078622719 
! Gamma         0                0                0                0                
! Port Impedance         50               0                50               0                
5.64                           0.512538062946478 -22.9086276950522 0.858038243646732 -112.894120984666 0.858038243646732 -112.894120984666 0.512538062946478 -22.9086276950522 
! Gamma         0                0                0                0                
! Port Impedance         50               0                50               0                
5.66                           0.511134986760769 -23.276555939752 0.858873007204525 -113.262502691016 0.858873007204525 -113.262502691016 0.511134986760769 -23.276555939752 
! Gamma         0                0                0                0                
! Port Impedance         50               0                50               0                
5.68                           0.509707978269878 -23.6452027346803 0.859718823797377 -113.631606511529 0.859718823797377 -113.631606511529 0.509707978269878 -23.6452027346803 
! Gamma         0                0                0                0                
! Port Impedance         50               0                50               0                
5.7                            0.508256932239912 -24.0145781680751 0.860575603796702 -114.001442617299 0.860575603796702 -114.001442617299 0.508256932239912 -24.0145781680751 
! Gamma         0                0                0                0                
! Port Impedance         50               0                50               0                
5.72                           0.506781742646622 -24.3846922761253 0.861443255263124 -114.372021129435 0.861443255263125 -114.372021129435 0.506781742646623 -24.3846922761253 
! Gamma         0                0                0                0                
! Port Impedance         50               0                50               0                
5.74                           0.505282302721383 -24.7555550409363 0.862321683906543 -114.743352117093 0.862321683906544 -114.743352117093 0.505282302721383 -24.7555550409364 
! Gamma         0                0                0                0                
! Port Impedance         50               0                50               0                
5.76                           0.503758504998608 -25.1271763884373 0.863210793045956 -115.115445595465 0.863210793045956 -115.115445595465 0.503758504998608 -25.1271763884373 
! Gamma         0                0                0                0                
! Port Impedance         50               0                50               0                
5.78                           0.502210241364643 -25.4995661862303 0.864110483569088 -115.488311523699 0.864110483569088 -115.488311523699 0.502210241364643 -25.4995661862303 
! Gamma         0                0                0                0                
! Port Impedance         50               0                50               0                
5.8                            0.500637403108151 -25.8727342413797 0.865020653891846 -115.86195980278 0.865020653891847 -115.86195980278 0.500637403108151 -25.8727342413797 
! Gamma         0                0                0                0                
! Port Impedance         50               0                50               0                
5.82                           0.499039880972027 -26.2466902981425 0.865941199917638 -116.236400273336 0.865941199917638 -116.236400273336 0.499039880972028 -26.2466902981425 
! Gamma         0                0                0                0                
! Port Impedance         50               0                50               0                
5.84                           0.497417565206869 -26.6214440356365 0.866872014996572 -116.611642713402 0.866872014996572 -116.611642713402 0.497417565206869 -26.6214440356365 
! Gamma         0                0                0                0                
! Port Impedance         50               0                50               0                
5.86                           0.495770345626032 -26.9970050654476 0.867812989884594 -116.987696836115 0.867812989884594 -116.987696836115 0.495770345626032 -26.9970050654476 
! Gamma         0                0                0                0                
! Port Impedance         50               0                50               0                
5.88                           0.4940981116623  -27.3733829291744 0.868764012702575 -117.364572287358 0.868764012702575 -117.364572287358 0.4940981116623  -27.3733829291744 
! Gamma         0                0                0                0                
! Port Impedance         50               0                50               0                
5.9                            0.492400752426187 -27.75058709591  0.869724968895399 -117.742278643341 0.869724968895399 -117.742278643341 0.492400752426187 -27.75058709591  
! Gamma         0                0                0                0                
! Port Impedance         50               0                50               0                
5.92                           0.490678156765916 -28.1286269596593 0.870695741191087 -118.120825408125 0.870695741191087 -118.120825408125 0.490678156765916 -28.1286269596593 
! Gamma         0                0                0                0                
! Port Impedance         50               0                50               0                
5.94                           0.488930213329087 -28.5075118366925 0.871676209559989 -118.500222011081 0.87167620955999 -118.500222011081 0.488930213329086 -28.5075118366925 
! Gamma         0                0                0                0                
! Port Impedance         50               0                50               0                
5.96                           0.48715681062606 -28.8872509628331 0.872666251174102 -118.880477804296 0.872666251174102 -118.880477804296 0.48715681062606 -28.8872509628331 
! Gamma         0                0                0                0                
! Port Impedance         50               0                50               0                
5.98                           0.485357837095095 -29.2678534906798 0.873665740366528 -119.261602059912 0.873665740366528 -119.261602059912 0.485357837095095 -29.2678534906798 
! Gamma         0                0                0                0                
! Port Impedance         50               0                50               0                
6                              0.483533181169248 -29.6493284867628 0.874674548591157 -119.643603967408 0.874674548591157 -119.643603967408 0.483533181169247 -29.6493284867628 
! Gamma         0                0                0                0                
! Port Impedance         50               0                50               0                
6.02                           0.48168273134507 -30.0316849286321 0.875692544382575 -120.026492630818 0.875692544382575 -120.026492630818 0.48168273134507 -30.0316849286321 
! Gamma         0                0                0                0                
! Port Impedance         50               0                50               0                
6.04                           0.47980637625312 -30.4149317018791 0.876719593316289 -120.410277065886 0.876719593316288 -120.410277065886 0.47980637625312 -30.4149317018791 
! Gamma         0                0                0                0                
! Port Impedance         50               0                50               0                
6.06                           0.477904004730316 -30.7990775970899 0.877755557969273 -120.794966197168 0.877755557969273 -120.794966197168 0.477904004730316 -30.7990775970899 
! Gamma         0                0                0                0                
! Port Impedance         50               0                50               0                
6.08                           0.475975505894143 -31.1841313067298 0.878800297880938 -121.180568855057 0.878800297880938 -121.180568855057 0.475975505894143 -31.1841313067298 
! Gamma         0                0                0                0                
! Port Impedance         50               0                50               0                
6.1                            0.47402076921875 -31.5701014219594 0.87985366951452 -121.56709377276 0.87985366951452 -121.56709377276 0.47402076921875 -31.5701014219594 
! Gamma         0                0                0                0                
! Port Impedance         50               0                50               0                
6.12                           0.472039684612932 -31.9569964293808 0.880915526218997 -121.954549583205 0.880915526218997 -121.954549583205 0.472039684612932 -31.9569964293809 
! Gamma         0                0                0                0                
! Port Impedance         50               0                50               0                
6.14                           0.470032142500039 -32.3448247077146 0.881985718191549 -122.34294481589 0.881985718191548 -122.34294481589 0.470032142500038 -32.3448247077146 
! Gamma         0                0                0                0                
! Port Impedance         50               0                50               0                
6.16                           0.467998033899809 -32.7335945244061 0.883064092440637 -122.732287893664 0.883064092440637 -122.732287893664 0.467998033899809 -32.7335945244061 
! Gamma         0                0                0                0                
! Port Impedance         50               0                50               0                
6.18                           0.465937250512156 -33.1233140321619 0.884150492749768 -123.122587129455 0.884150492749767 -123.122587129455 0.465937250512156 -33.1233140321619 
! Gamma         0                0                0                0                
! Port Impedance         50               0                50               0                
6.2                            0.463849684802907 -33.5139912654158 0.885244759641983 -123.513850722929 0.885244759641983 -123.513850722929 0.463849684802907 -33.5139912654158 
! Gamma         0                0                0                0                
! Port Impedance         50               0                50               0                
6.22                           0.461735230091516 -33.905634136723 0.886346730345159 -123.906086757091 0.886346730345159 -123.906086757091 0.461735230091517 -33.9056341367229 
! Gamma         0                0                0                0                
! Port Impedance         50               0                50               0                
6.24                           0.459593780640759 -34.2982504330844 0.887456238758166 -124.299303194824 0.887456238758166 -124.299303194824 0.45959378064076 -34.2982504330844 
! Gamma         0                0                0                0                
! Port Impedance         50               0                50               0                
6.26                           0.457425231748411 -34.6918478121995 0.88857311541797 -124.693507875369 0.88857311541797 -124.693507875369 0.457425231748411 -34.6918478121995 
! Gamma         0                0                0                0                
! Port Impedance         50               0                50               0                
6.28                           0.455229479840921 -35.0864337986473 0.88969718746772 -125.088708510742 0.88969718746772 -125.088708510742 0.455229479840921 -35.0864337986473 
! Gamma         0                0                0                0                
! Port Impedance         50               0                50               0                
6.3                            0.453006422569084 -35.4820157799971 0.89082827862592 -125.484912682095 0.89082827862592 -125.484912682095 0.453006422569084 -35.4820157799971 
! Gamma         0                0                0                0                
! Port Impedance         50               0                50               0                
6.32                           0.450755958905708 -35.8786010028469 0.891966209156739 -125.882127836019 0.891966209156739 -125.882127836019 0.450755958905709 -35.8786010028469 
! Gamma         0                0                0                0                
! Port Impedance         50               0                50               0                
6.34                           0.448477989245282 -36.2761965687919 0.893110795841538 -126.280361280783 0.893110795841539 -126.280361280783 0.448477989245282 -36.2761965687919 
! Gamma         0                0                0                0                
! Port Impedance         50               0                50               0                
6.36                           0.446172415505632 -36.6748094303199 0.894261851951687 -126.679620182522 0.894261851951686 -126.679620182522 0.446172415505633 -36.6748094303199 
! Gamma         0                0                0                0                
! Port Impedance         50               0                50               0                
6.38                           0.443839141231571 -37.0744463866381 0.895419187222749 -127.079911561369 0.89541918722275 -127.079911561369 0.443839141231571 -37.0744463866382 
! Gamma         0                0                0                0                
! Port Impedance         50               0                50               0                
6.4                            0.441478071700522 -37.4751140794267 0.896582607830126 -127.481242287526 0.896582607830126 -127.481242287526 0.441478071700522 -37.4751140794267 
! Gamma         0                0                0                0                
! Port Impedance         50               0                50               0                
6.42                           0.439089114030114 -37.8768189885234 0.897751916366204 -127.883619077293 0.897751916366204 -127.883619077293 0.439089114030114 -37.8768189885234 
! Gamma         0                0                0                0                
! Port Impedance         50               0                50               0                
6.44                           0.436672177287724 -38.2795674275366 0.898926911819137 -128.287048489027 0.898926911819137 -128.287048489027 0.436672177287724 -38.2795674275367 
! Gamma         0                0                0                0                
! Port Impedance         50               0                50               0                
6.46                           0.43422717260196 -38.6833655393888 0.9001073895533  -128.69153691907 0.9001073895533  -128.69153691907 0.43422717260196 -38.6833655393887 
! Gamma         0                0                0                0                
! Port Impedance         50               0                50               0                
6.48                           0.431754013276053 -39.0882192917894 0.901293141291527 -129.097090597613 0.901293141291527 -129.097090597613 0.431754013276053 -39.0882192917894 
! Gamma         0                0                0                0                
! Port Impedance         50               0                50               0                
6.5                            0.429252614903144 -39.4941344726395 0.902483955099213 -129.503715584514 0.902483955099213 -129.503715584514 0.429252614903144 -39.4941344726394 
! Gamma         0                0                0                0                
! Port Impedance         50               0                50               0                
6.52                           0.426722895483432 -39.901116685365 0.903679615370357 -129.911417765079 0.903679615370357 -129.911417765079 0.426722895483432 -39.901116685365 
! Gamma         0                0                0                0                
! Port Impedance         50               0                50               0                
6.54                           0.42416477554315 -40.309171344183 0.904879902815645 -130.320202845788 0.904879902815645 -130.320202845788 0.42416477554315 -40.309171344183 
! Gamma         0                0                0                0                
! Port Impedance         50               0                50               0                
6.56                           0.421578178255344 -40.7183036692984 0.906084594452657 -130.730076349984 0.906084594452657 -130.730076349984 0.421578178255345 -40.7183036692984 
! Gamma         0                0                0                0                
! Port Impedance         50               0                50               0                
6.58                           0.418963029562408 -41.1285186820326 0.907293463598296 -131.141043613522 0.907293463598296 -131.141043613522 0.418963029562408 -41.1285186820326 
! Gamma         0                0                0                0                
! Port Impedance         50               0                50               0                
6.6                            0.41631925830033 -41.5398211998844 0.908506279863505 -131.553109780375 0.908506279863505 -131.553109780375 0.416319258300329 -41.5398211998844 
! Gamma         0                0                0                0                
! Port Impedance         50               0                50               0                
6.62                           0.413646796324616 -41.952215831523 0.909722809150404 -131.966279798213 0.909722809150404 -131.966279798213 0.413646796324616 -41.952215831523 
! Gamma         0                0                0                0                
! Port Impedance         50               0                50               0                
6.64                           0.410945578637828 -42.3657069717144 0.910942813651907 -132.380558413943 0.910942813651907 -132.380558413943 0.410945578637828 -42.3657069717144 
! Gamma         0                0                0                0                
! Port Impedance         50               0                50               0                
6.66                           0.408215543518686 -42.7802987961805 0.91216605185391 -132.795950169216 0.91216605185391 -132.795950169216 0.408215543518686 -42.7802987961804 
! Gamma         0                0                0                0                
! Port Impedance         50               0                50               0                
6.68                           0.405456632652673 -43.1959952563909 0.913392278540181 -133.212459395914 0.913392278540181 -133.212459395914 0.405456632652673 -43.1959952563909 
! Gamma         0                0                0                0                
! Port Impedance         50               0                50               0                
6.7                            0.402668791264088 -43.6128000742897 0.914621244799994 -133.630090211608 0.914621244799994 -133.630090211608 0.402668791264088 -43.6128000742896 
! Gamma         0                0                0                0                
! Port Impedance         50               0                50               0                
6.72                           0.39985196824946 -44.0307167369535 0.915852698038643 -134.04884651499 0.915852698038643 -134.04884651499 0.399851968249461 -44.0307167369535 
! Gamma         0                0                0                0                
! Port Impedance         50               0                50               0                
6.74                           0.397006116312274 -44.4497484911854 0.917086381990901 -134.468731981297 0.917086381990901 -134.468731981297 0.397006116312274 -44.4497484911854 
! Gamma         0                0                0                0                
! Port Impedance         50               0                50               0                
6.76                           0.394131192098907 -44.8698983380398 0.918322036737538 -134.88975005771 0.918322036737538 -134.88975005771 0.394131192098907 -44.8698983380398 
! Gamma         0                0                0                0                
! Port Impedance         50               0                50               0                
6.78                           0.391227156335712 -45.2911690272823 0.919559398724972 -135.311903958746 0.919559398724972 -135.311903958746 0.391227156335712 -45.2911690272823 
! Gamma         0                0                0                0                
! Port Impedance         50               0                50               0                
6.8                            0.388293973967147 -45.7135630517804 0.920798200788163 -135.735196661638 0.920798200788163 -135.735196661638 0.388293973967147 -45.7135630517804 
! Gamma         0                0                0                0                
! Port Impedance         50               0                50               0                
6.82                           0.385331614294866 -46.1370826418273 0.922038172176826 -136.15963090172 0.922038172176826 -136.15963090172 0.385331614294866 -46.1370826418272 
! Gamma         0                0                0                0                
! Port Impedance         50               0                50               0                
6.84                           0.382340051117669 -46.5617297593955 0.923279038585064 -136.585209167799 0.923279038585064 -136.585209167799 0.382340051117669 -46.5617297593955 
! Gamma         0                0                0                0                
! Port Impedance         50               0                50               0                
6.86                           0.379319262872211 -46.9875060923209 0.924520522184502 -137.011933697539 0.924520522184502 -137.011933697539 0.379319262872211 -46.9875060923209 
! Gamma         0                0                0                0                
! Port Impedance         50               0                50               0                
6.88                           0.376269232774358 -47.4144130484141 0.925762341661024 -137.439806472852 0.925762341661024 -137.439806472852 0.376269232774359 -47.4144130484141 
! Gamma         0                0                0                0                
! Port Impedance         50               0                50               0                
6.9                            0.373189948961086 -47.8424517494989 0.927004212255176 -137.868829215297 0.927004212255176 -137.868829215297 0.373189948961086 -47.8424517494989 
! Gamma         0                0                0                0                
! Port Impedance         50               0                50               0                
6.92                           0.370081404632785 -48.2716230253735 0.928245845806342 -138.299003381502 0.928245845806341 -138.299003381502 0.370081404632785 -48.2716230253734 
! Gamma         0                0                0                0                
! Port Impedance         50               0                50               0                
6.94                           0.366943598195872 -48.7019274076937 0.92948695080076 -138.730330158601 0.929486950800761 -138.730330158601 0.366943598195872 -48.7019274076937 
! Gamma         0                0                0                0                
! Port Impedance         50               0                50               0                
6.96                           0.363776533405557 -49.1333651237734 0.930727232423474 -139.162810459702 0.930727232423474 -139.162810459702 0.363776533405557 -49.1333651237733 
! Gamma         0                0                0                0                
! Port Impedance         50               0                50               0                
6.98                           0.360580219508644 -49.5659360902981 0.931966392614269 -139.596444919384 0.93196639261427 -139.596444919384 0.360580219508644 -49.5659360902981 
! Gamma         0                0                0                0                
! Port Impedance         50               0                50               0                
7                              0.357354671386218 -49.9996399069487 0.933204130127709 -140.031233889231 0.933204130127709 -140.031233889231 0.357354671386218 -49.9996399069487 
! Gamma         0                0                0                0                
! Port Impedance         50               0                50               0                
7.02                           0.354099909696084 -50.4344758499273 0.934440140597299 -140.467177433406 0.934440140597299 -140.467177433406 0.354099909696084 -50.4344758499273 
! Gamma         0                0                0                0                
! Port Impedance         50               0                50               0                
7.04                           0.350815961014793 -50.8704428653807 0.93567411660388 -140.904275324273 0.93567411660388 -140.904275324273 0.350815961014793 -50.8704428653807 
! Gamma         0                0                0                0                
! Port Impedance         50               0                50               0                
7.06                           0.347502857979109 -51.3075395627136 0.936905747748297 -141.342527038071 0.936905747748297 -141.342527038071 0.347502857979109 -51.3075395627136 
! Gamma         0                0                0                0                
! Port Impedance         50               0                50               0                
7.08                           0.34416063942676 -51.7457642077819 0.938134720728412 -141.781931750647 0.938134720728412 -141.781931750647 0.34416063942676 -51.7457642077819 
! Gamma         0                0                0                0                
! Port Impedance         50               0                50               0                
7.1                            0.340789350536293 -52.1851147159579 0.939360719420506 -142.222488333247 0.939360719420506 -142.222488333247 0.340789350536293 -52.1851147159579 
! Gamma         0                0                0                0                
! Port Impedance         50               0                50               0                
7.12                           0.337389042965877 -52.625588645054 0.940583424965143 -142.664195348387 0.940583424965143 -142.664195348387 0.337389042965877 -52.625588645054 
! Gamma         0                0                0                0                
! Port Impedance         50               0                50               0                
7.14                           0.333959774990873 -53.0671831880936 0.941802515857512 -143.107051045786 0.941802515857512 -143.107051045786 0.333959774990874 -53.0671831880936 
! Gamma         0                0                0                0                
! Port Impedance         50               0                50               0                
7.16                           0.330501611639992 -53.5098951659127 0.943017668042323 -143.551053358392 0.943017668042323 -143.551053358392 0.330501611639992 -53.5098951659127 
! Gamma         0                0                0                0                
! Port Impedance         50               0                50               0                
7.18                           0.327014624829846 -53.9537210195764 0.944228555013263 -143.996199898489 0.944228555013263 -143.996199898489 0.327014624829846 -53.9537210195764 
! Gamma         0                0                0                0                
! Port Impedance         50               0                50               0                
7.2                            0.323498893497732 -54.3986568025891 0.945434847917063 -144.442487953899 0.945434847917063 -144.442487953899 0.323498893497732 -54.3986568025891 
! Gamma         0                0                0                0                
! Port Impedance         50               0                50               0                
7.22                           0.319954503732422 -54.8446981728773 0.946636215662187 -144.889914484285 0.946636215662187 -144.889914484285 0.319954503732421 -54.8446981728774 
! Gamma         0                0                0                0                
! Port Impedance         50               0                50               0                
7.24                           0.316381548902776 -55.2918403845201 0.947832325032179 -145.338476117558 0.947832325032179 -145.338476117559 0.316381548902776 -55.2918403845201 
! Gamma         0                0                0                0                
! Port Impedance         50               0                50               0                
7.26                           0.312780129783997 -55.7400782791956 0.949022840803653 -145.788169146403 0.949022840803652 -145.788169146403 0.312780129783996 -55.7400782791955 
! Gamma         0                0                0                0                
! Port Impedance         50               0                50               0                
7.28                           0.309150354681287 -56.1894062773137 0.95020742586896 -146.238989524914 0.95020742586896 -146.238989524914 0.309150354681287 -56.1894062773137 
! Gamma         0                0                0                0                
! Port Impedance         50               0                50               0                
7.3                            0.305492339550726 -56.6398183687963 0.95138574136351 -146.690932865365 0.95138574136351 -146.690932865365 0.305492339550726 -56.6398183687964 
! Gamma         0                0                0                0                
! Port Impedance         50               0                50               0                
7.32                           0.301806208117155 -57.0913081034614 0.952557446797749 -147.143994435112 0.952557446797749 -147.143994435112 0.301806208117155 -57.0913081034614 
! Gamma         0                0                0                0                
! Port Impedance         50               0                50               0                
7.34                           0.298092091988845 -57.543868580964 0.953722200193769 -147.598169153626 0.953722200193768 -147.598169153626 0.298092091988845 -57.543868580964 
! Gamma         0                0                0                0                
! Port Impedance         50               0                50               0                
7.36                           0.294350130768748 -57.9974924402388 0.954879658226528 -148.053451589682 0.954879658226528 -148.053451589682 0.294350130768749 -57.9974924402387 
! Gamma         0                0                0                0                
! Port Impedance         50               0                50               0                
7.38                           0.290580472162106 -58.4521718483805 0.956029476369655 -148.509835958696 0.956029476369655 -148.509835958696 0.290580472162106 -58.4521718483806 
! Gamma         0                0                0                0                
! Port Impedance         50               0                50               0                
7.4                            0.286783272080201 -58.9078984888921 0.957171309045779 -148.967316120221 0.957171309045779 -148.967316120221 0.286783272080201 -58.9078984888921 
! Gamma         0                0                0                0                
! Port Impedance         50               0                50               0                
7.42                           0.282958694740029 -59.3646635492186 0.958304809781355 -149.42588557561 0.958304809781355 -149.42588557561 0.282958694740029 -59.3646635492186 
! Gamma         0                0                0                0                
! Port Impedance         50               0                50               0                
7.44                           0.279106912759679 -59.8224577074744 0.959429631365913 -149.885537465853 0.959429631365913 -149.885537465853 0.279106912759679 -59.8224577074744 
! Gamma         0                0                0                0                
! Port Impedance         50               0                50               0                
7.46                           0.275228107249192 -60.2812711182582 0.960545426015664 -150.346264569589 0.960545426015664 -150.346264569589 0.275228107249192 -60.2812711182582 
! Gamma         0                0                0                0                
! Port Impedance         50               0                50               0                
7.48                           0.271322467896686 -60.7410933974352 0.9616518455414  -150.808059301309 0.9616518455414  -150.808059301309 0.271322467896686 -60.7410933974351 
! Gamma         0                0                0                0                
! Port Impedance         50               0                50               0                
7.5                            0.267390193049524 -61.2019136057471 0.962748541520579 -151.270913709747 0.962748541520579 -151.270913709747 0.267390193049524 -61.2019136057471 
! Gamma         0                0                0                0                
! Port Impedance         50               0                50               0                
7.52                           0.263431489790308 -61.6637202310951 0.963835165473518 -151.73481947647 0.963835165473518 -151.73481947647 0.263431489790308 -61.663720231095 
! Gamma         0                0                0                0                
! Port Impedance         50               0                50               0                
7.54                           0.259446574007483 -62.1265011693105 0.964911369043587 -152.199767914678 0.964911369043587 -152.199767914678 0.259446574007483 -62.1265011693106 
! Gamma         0                0                0                0                
! Port Impedance         50               0                50               0                
7.56                           0.255435670460338 -62.5902437032097 0.965976804181271 -152.665749968206 0.965976804181271 -152.665749968206 0.255435670460337 -62.5902437032097 
! Gamma         0                0                0                0                
! Port Impedance         50               0                50               0                
7.58                           0.251399012838185 -63.0549344796891 0.967031123332008 -153.132756210753 0.967031123332008 -153.132756210753 0.251399012838185 -63.0549344796891 
! Gamma         0                0                0                0                
! Port Impedance         50               0                50               0                
7.6                            0.247336843813525 -63.5205594845898 0.968073979627638 -153.600776845325 0.968073979627638 -153.600776845325 0.247336843813525 -63.5205594845897 
! Gamma         0                0                0                0                
! Port Impedance         50               0                50               0                
7.62                           0.243249415088971 -63.9871040150093 0.96910502708133 -154.069801703915 0.969105027081329 -154.069801703915 0.243249415088971 -63.9871040150092 
! Gamma         0                0                0                0                
! Port Impedance         50               0                50               0                
7.64                           0.239136987437751 -64.4545526486944 0.970123920785843 -154.53982024741 0.970123920785843 -154.53982024741 0.239136987437752 -64.4545526486943 
! Gamma         0                0                0                0                
! Port Impedance         50               0                50               0                
7.66                           0.234999830737591 -64.9228892100879 0.971130317114948 -155.010821565743 0.971130317114948 -155.010821565743 0.234999830737591 -64.922889210088 
! Gamma         0                0                0                0                
! Port Impedance         50               0                50               0                
7.68                           0.230838223997769 -65.3920967325325 0.972123873927826 -155.482794378292 0.972123873927826 -155.482794378292 0.230838223997769 -65.3920967325325 
! Gamma         0                0                0                0                
! Port Impedance         50               0                50               0                
7.7                            0.226652455379194 -65.862157416053 0.973104250776284 -155.955727034515 0.973104250776284 -155.955727034515 0.226652455379194 -65.862157416053 
! Gamma         0                0                0                0                
! Port Impedance         50               0                50               0                
7.72                           0.222442822207292 -66.3330525800432 0.97407110911458 -156.429607514863 0.97407110911458 -156.429607514863 0.222442822207292 -66.3330525800432 
! Gamma         0                0                0                0                
! Port Impedance         50               0                50               0                
7.74                           0.218209630977567 -66.8047626100641 0.975024112511652 -156.90442343193 0.975024112511652 -156.90442343193 0.218209630977567 -66.8047626100641 
! Gamma         0                0                0                0                
! Port Impedance         50               0                50               0                
7.76                           0.213953197353653 -67.2772668978236 0.975962926865555 -157.380162031878 0.975962926865555 -157.380162031878 0.213953197353653 -67.2772668978236 
! Gamma         0                0                0                0                
! Port Impedance         50               0                50               0                
7.78                           0.209673846157714 -67.7505437732423 0.976887220619868 -157.85681019613 0.976887220619867 -157.85681019613 0.209673846157714 -67.7505437732423 
! Gamma         0                0                0                0                
! Port Impedance         50               0                50               0                
7.8                            0.205371911353053 -68.224570427309 0.977796664981853 -158.334354443328 0.977796664981853 -158.334354443328 0.205371911353053 -68.2245704273089 
! Gamma         0                0                0                0                
! Port Impedance         50               0                50               0                
7.82                           0.201047736018795 -68.6993228241862 0.978690934142131 -158.81278093157 0.978690934142131 -158.81278093157 0.201047736018795 -68.6993228241862 
! Gamma         0                0                0                0                
! Port Impedance         50               0                50               0                
7.84                           0.196701672316524 -69.1747756007373 0.979569705495606 -159.292075460924 0.979569705495606 -159.292075460924 0.196701672316524 -69.1747756007373 
! Gamma         0                0                0                0                
! Port Impedance         50               0                50               0                
7.86                           0.19233408144877 -69.6509019512822 0.98043265986342 -159.772223476219 0.98043265986342 -159.772223476219 0.19233408144877 -69.6509019512821 
! Gamma         0                0                0                0                
! Port Impedance         50               0                50               0                
7.88                           0.187945333609255 -70.1276734949556 0.981279481715641 -160.253210070123 0.981279481715642 -160.253210070123 0.187945333609255 -70.1276734949555 
! Gamma         0                0                0                0                
! Port Impedance         50               0                50               0                
7.9                            0.183535807924796 -70.6050601225031 0.982109859394443 -160.735019986503 0.982109859394443 -160.735019986503 0.183535807924796 -70.605060122503 
! Gamma         0                0                0                0                
! Port Impedance         50               0                50               0                
7.92                           0.179105892388842 -71.0830298186783 0.982923485337478 -161.21763762407 0.982923485337478 -161.21763762407 0.179105892388842 -71.0830298186784 
! Gamma         0                0                0                0                
! Port Impedance         50               0                50               0                
7.94                           0.174655983786545 -71.5615484555832 0.983720056301185 -161.701047040312 0.983720056301185 -161.701047040312 0.174655983786545 -71.5615484555831 
! Gamma         0                0                0                0                
! Port Impedance         50               0                50               0                
7.96                           0.170186487611384 -72.0405795512522 0.984499273583717 -162.185231955719 0.984499273583718 -162.185231955719 0.170186487611384 -72.0405795512523 
! Gamma         0                0                0                0                
! Port Impedance         50               0                50               0                
7.98                           0.165697817973295 -72.5200839864888 0.985260843247232 -162.670175758288 0.985260843247232 -162.670175758288 0.165697817973294 -72.5200839864889 
! Gamma         0                0                0                0                
! Port Impedance         50               0                50               0                
8                              0.161190397498332 -73.0000196713077 0.986004476339199 -163.155861508323 0.986004476339199 -163.155861508323 0.161190397498332 -73.0000196713076 
! Gamma         0                0                0                0                
! Port Impedance         50               0                50               0                
8.02                           0.156664657219907 -73.4803411502571 0.986729889112477 -163.642271943525 0.986729889112477 -163.642271943525 0.156664657219907 -73.4803411502572 
! Gamma         0                0                0                0                
! Port Impedance         50               0                50               0                
8.04                           0.152121036461645 -73.9609991332069 0.987436803243808 -164.129389484357 0.987436803243808 -164.129389484357 0.152121036461645 -73.9609991332069 
! Gamma         0                0                0                0                
! Port Impedance         50               0                50               0                
8.06                           0.147559982711977 -74.4419399347398 0.988124946050445 -164.617196239711 0.988124946050445 -164.617196239711 0.147559982711977 -74.4419399347399 
! Gamma         0                0                0                0                
! Port Impedance         50               0                50               0                
8.08                           0.142981951490579 -74.923104800795 0.988794050704601 -165.105674012843 0.988794050704601 -165.105674012843 0.142981951490579 -74.9231048007949 
! Gamma         0                0                0                0                
! Port Impedance         50               0                50               0                
8.1                            0.138387406206864 -75.4044290953273 0.989443856445397 -165.594804307603 0.989443856445398 -165.594804307603 0.138387406206864 -75.4044290953273 
! Gamma         0                0                0                0                
! Port Impedance         50               0                50               0                
8.12                           0.133776818010725 -75.8858413119935 0.99007410878801 -166.084568334935 0.99007410878801 -166.084568334935 0.133776818010725 -75.8858413119935 
! Gamma         0                0                0                0                
! Port Impedance         50               0                50               0                
8.14                           0.129150665635846 -76.3672618655198 0.990684559729681 -166.574947019655 0.990684559729681 -166.574947019655 0.129150665635846 -76.3672618655197 
! Gamma         0                0                0                0                
! Port Impedance         50               0                50               0                
8.16                           0.124509435235964 -76.8486016034909 0.991274967952313 -167.065921007503 0.991274967952313 -167.065921007503 0.124509435235964 -76.8486016034909 
! Gamma         0                0                0                0                
! Port Impedance         50               0                50               0                
8.18                           0.119853620214563 -77.3297599603844 0.991845099021298 -167.55747067246 0.991845099021298 -167.55747067246 0.119853620214563 -77.3297599603845 
! Gamma         0                0                0                0                
! Port Impedance         50               0                50               0                
8.2                            0.115183721048648 -77.8106226496728 0.992394725580302 -168.04957612433 0.992394725580302 -168.04957612433 0.115183721048648 -77.8106226496728 
! Gamma         0                0                0                0                
! Port Impedance         50               0                50               0                
8.22                           0.110500245107412 -78.2910587536849 0.992923627541678 -168.542217216582 0.992923627541678 -168.542217216582 0.110500245107413 -78.2910587536848 
! Gamma         0                0                0                0                
! Port Impedance         50               0                50               0                
8.24                           0.105803706466917 -78.7709170200188 0.993431592272213 -169.035373554439 0.993431592272212 -169.035373554439 0.105803706466917 -78.7709170200188 
! Gamma         0                0                0                0                
! Port Impedance         50               0                50               0                
8.26                           0.101094625722231 -79.2500211006848 0.993918414773908 -169.52902450322 0.993918414773908 -169.52902450322 0.101094625722231 -79.2500211006847 
! Gamma         0                0                0                0                
! Port Impedance         50               0                50               0                
8.28                           0.0963735297990594 -79.7281633649184 0.994383897859495 -170.023149196918 0.994383897859495 -170.023149196918 0.0963735297990594 -79.7281633649184 
! Gamma         0                0                0                0                
! Port Impedance         50               0                50               0                
8.3                            0.0916409517676248 -80.2050967617096 0.9948278523224  -170.517726547016 0.9948278523224  -170.517726547016 0.0916409517676248 -80.2050967617095 
! Gamma         0                0                0                0                
! Port Impedance         50               0                50               0                
8.32                           0.0868974306627648 -80.6805239759912 0.995250097100879 -171.012735251525 0.995250097100879 -171.012735251525 0.0868974306627648 -80.6805239759912 
! Gamma         0                0                0                0                
! Port Impedance         50               0                50               0                
8.34                           0.0821435113159458 -81.1540827678703 0.995650459436038 -171.50815380424 0.995650459436038 -171.50815380424 0.0821435113159458 -81.1540827678704 
! Gamma         0                0                0                0                
! Port Impedance         50               0                50               0                
8.36                           0.0773797442076539 -81.6253258310495 0.996028775023487 -172.003960504214 0.996028775023487 -172.003960504214 0.0773797442076539 -81.6253258310495 
! Gamma         0                0                0                0                
! Port Impedance         50               0                50               0                
8.38                           0.0726066853529909 -82.0936926227003 0.996384888158354 -172.500133465424 0.996384888158354 -172.500133465424 0.0726066853529909 -82.0936926227001 
! Gamma         0                0                0                0                
! Port Impedance         50               0                50               0                
8.4                            0.0678248962404656 -82.5584691673954 0.996718651873415 -172.996650626635 0.996718651873415 -172.996650626635 0.0678248962404657 -82.5584691673951 
! Gamma         0                0                0                0                
! Port Impedance         50               0                50               0                
8.42                           0.0630349438560925 -83.0187293890432 0.997029928070114 -173.49348976145 0.997029928070114 -173.49348976145 0.0630349438560925 -83.0187293890429 
! Gamma         0                0                0                0                
! Port Impedance         50               0                50               0                
8.44                           0.0582374008459745 -83.4732472487868 0.997318587642225 -173.990628488528 0.997318587642226 -173.990628488528 0.0582374008459745 -83.4732472487873 
! Gamma         0                0                0                0                
! Port Impedance         50               0                50               0                
8.46                           0.0534328459088902 -83.9203612114249 0.997584510591958 -174.48804428197 0.997584510591958 -174.48804428197 0.0534328459088902 -83.9203612114251 
! Gamma         0                0                0                0                
! Port Impedance         50               0                50               0                
8.48                           0.0486218645828592 -84.357757869709 0.997827586138282 -174.98571448186 0.997827586138282 -174.98571448186 0.0486218645828592 -84.357757869709 
! Gamma         0                0                0                0                
! Port Impedance         50               0                50               0                
8.5                            0.0438050507342691 -84.7821122682336 0.998047712817309 -175.483616304944 0.998047712817309 -175.483616304944 0.043805050734269 -84.7821122682331 
! Gamma         0                0                0                0                
! Port Impedance         50               0                50               0                
8.52                           0.0389830093640315 -85.188460482611 0.99824479857452 -175.981726855447 0.99824479857452 -175.981726855447 0.0389830093640316 -85.1884604826107 
! Gamma         0                0                0                0                
! Port Impedance         50               0                50               0                
8.54                           0.0341563620411501 -85.5690390223755 0.998418760848705 -176.480023136006 0.998418760848705 -176.480023136006 0.0341563620411502 -85.5690390223751 
! Gamma         0                0                0                0                
! Port Impedance         50               0                50               0                
8.56                           0.0293257580033056 -85.9109753230345 0.998569526647435 -176.978482058718 0.998569526647435 -176.978482058718 0.0293257580033056 -85.9109753230342 
! Gamma         0                0                0                0                
! Port Impedance         50               0                50               0                
8.58                           0.0244918987681257 -86.1912405480502 0.998697032613952 -177.477080456279 0.998697032613952 -177.477080456279 0.0244918987681257 -86.1912405480505 
! Gamma         0                0                0                0                
! Port Impedance         50               0                50               0                
8.6                            0.0196555995472724 -86.3641477161247 0.998801225085356 -177.975795093214 0.998801225085356 -177.975795093214 0.0196555995472724 -86.3641477161247 
! Gamma         0                0                0                0                
! Port Impedance         50               0                50               0                
8.62                           0.0148179715990143 -86.3243631635335 0.998882060141964 -178.474602677184 0.998882060141964 -178.474602677184 0.0148179715990143 -86.3243631635325 
! Gamma         0                0                0                0                
! Port Impedance         50               0                50               0                
8.64                           0.00998113578330958 -85.7624485488017 0.998939503647775 -178.973479870346 0.998939503647775 -178.973479870346 0.0099811357833096 -85.7624485488003 
! Gamma         0                0                0                0                
! Port Impedance         50               0                50               0                
8.66                           0.00515295434038978 -83.2094542646234 0.998973531281955 -179.472403300767 0.998973531281956 -179.472403300767 0.00515295434038974 -83.2094542646276 
! Gamma         0                0                0                0                
! Port Impedance         50               0                50               0                
8.68                           0.00062997980990829 -26.1912418835023 0.998984128561284 -179.971349573882 0.998984128561284 -179.971349573882 0.00062997980990829 -26.1912418835022 
! Gamma         0                0                0                0                
! Port Impedance         50               0                50               0                
8.7                            0.00460074427637355 82.4364234292868 0.99897129085353 179.529704716036 0.99897129085353 179.529704716036 0.00460074427637355 82.4364234292868 
! Gamma         0                0                0                0                
! Port Impedance         50               0                50               0                
8.72                           0.00942612275654693 85.5576485108462 0.998935023381724 179.030782974385 0.998935023381725 179.030782974385 0.0094261227565469 85.5576485108493 
! Gamma         0                0                0                0                
! Port Impedance         50               0                50               0                
8.74                           0.0142624545434828 86.2257666091368 0.998875341219328 178.531908594745 0.998875341219327 178.531908594745 0.0142624545434828 86.2257666091358 
! Gamma         0                0                0                0                
! Port Impedance         50               0                50               0                
8.76                           0.0190999274359396 86.30279821024   0.998792269276291 178.033104947404 0.998792269276291 178.033104947404 0.0190999274359396 86.3027982102389 
! Gamma         0                0                0                0                
! Port Impedance         50               0                50               0                
8.78                           0.0239361785642974 86.1471478573845 0.998685842276056 177.534395367906 0.998685842276057 177.534395367906 0.0239361785642974 86.1471478573851 
! Gamma         0                0                0                0                
! Port Impedance         50               0                50               0                
8.8                            0.028770036865436 85.8762643942153 0.998556104723513 177.035803145642 0.998556104723513 177.035803145642 0.028770036865436 85.876264394215  
! Gamma         0                0                0                0                
! Port Impedance         50               0                50               0                
8.82                           0.033600666642013 85.5399906474887 0.998403110863984 176.537351512485 0.998403110863983 176.537351512485 0.033600666642013 85.5399906474889 
! Gamma         0                0                0                0                
! Port Impedance         50               0                50               0                
8.84                           0.038427357838576 85.1630924183219 0.998226924633316 176.039063631493 0.998226924633317 176.039063631493 0.038427357838576 85.163092418322  
! Gamma         0                0                0                0                
! Port Impedance         50               0                50               0                
8.86                           0.0432494571612717 84.7592723574127 0.998027619599161 175.540962585687 0.998027619599161 175.540962585687 0.0432494571612717 84.7592723574123 
! Gamma         0                0                0                0                
! Port Impedance         50               0                50               0                
8.88                           0.0480663409286291 84.3367312500297 0.997805278893547 175.043071366906 0.997805278893547 175.043071366906 0.0480663409286291 84.3367312500298 
! Gamma         0                0                0                0                
! Port Impedance         50               0                50               0                
8.9                            0.052877402965802 83.9006811529642 0.997559995136878 174.545412864777 0.997559995136878 174.545412864777 0.052877402965802 83.9006811529644 
! Gamma         0                0                0                0                
! Port Impedance         50               0                50               0                
8.92                           0.0576820487251094 83.4545963157114 0.997291870353488 174.048009855779 0.997291870353488 174.048009855779 0.0576820487251093 83.4545963157116 
! Gamma         0                0                0                0                
! Port Impedance         50               0                50               0                
8.94                           0.062479692263927 83.0008843379545 0.99700101587889 173.550884992443 0.99700101587889 173.550884992443 0.062479692263927 83.0008843379543 
! Gamma         0                0                0                0                
! Port Impedance         50               0                50               0                
8.96                           0.0672697546433376 82.5412685619762 0.996687552258913 173.054060792669 0.996687552258913 173.054060792669 0.0672697546433376 82.5412685619762 
! Gamma         0                0                0                0                
! Port Impedance         50               0                50               0                
8.98                           0.0720516630797582 82.0770169446744 0.996351609140882 172.557559629206 0.996351609140883 172.557559629206 0.0720516630797582 82.0770169446743 
! Gamma         0                0                0                0                
! Port Impedance         50               0                50               0                
9                              0.0768248505166285 81.6090848034132 0.995993325157043 172.061403719267 0.995993325157043 172.061403719267 0.0768248505166285 81.6090848034133 
! Gamma         0                0                0                0                
! Port Impedance         50               0                50               0                
9.02                           0.0815887554402736 81.1382070137672 0.995612847800434 171.565615114322 0.995612847800434 171.565615114322 0.0815887554402736 81.1382070137672 
! Gamma         0                0                0                0                
! Port Impedance         50               0                50               0                
9.04                           0.0863428218423282 80.6649593768784 0.995210333293423 171.07021569006  0.995210333293423 171.07021569006  0.0863428218423281 80.6649593768785 
! Gamma         0                0                0                0                
! Port Impedance         50               0                50               0                
9.06                           0.0910864992722241 80.1898005480126 0.994785946449142 170.575227136537 0.994785946449142 170.575227136537 0.091086499272224 80.1898005480125 
! Gamma         0                0                0                0                
! Port Impedance         50               0                50               0                
9.08                           0.095819242945781 79.7131013487911 0.994339860526051 170.080670948516 0.99433986052605 170.080670948516 0.095819242945781 79.7131013487912 
! Gamma         0                0                0                0                
! Port Impedance         50               0                50               0                
9.1                            0.100540513888828 79.2351656797016 0.993872257075884 169.586568416012 0.993872257075883 169.586568416012 0.100540513888828 79.2351656797016 
! Gamma         0                0                0                0                
! Port Impedance         50               0                50               0                
9.12                           0.105249779102374 78.7562457123487 0.993383325785237 169.092940615043 0.993383325785237 169.092940615043 0.105249779102374 78.7562457123486 
! Gamma         0                0                0                0                
! Port Impedance         50               0                50               0                
9.14                           0.109946511740473 78.2765531066744 0.992873264311067 168.599808398605 0.992873264311067 168.599808398605 0.109946511740473 78.2765531066745 
! Gamma         0                0                0                0                
! Port Impedance         50               0                50               0                
9.16                           0.114630191294821 77.7962674152981 0.992342278110365 168.107192387874 0.992342278110365 168.107192387874 0.114630191294821 77.796267415298  
! Gamma         0                0                0                0                
! Port Impedance         50               0                50               0                
9.18                           0.119300303781966 77.3155424644065 0.991790580264304 167.615112963636 0.991790580264303 167.615112963636 0.119300303781966 77.3155424644066 
! Gamma         0                0                0                0                
! Port Impedance         50               0                50               0                
9.2                            0.123956341930246 76.8345112572179 0.991218391297142 167.123590257962 0.991218391297142 167.123590257962 0.123956341930246 76.8345112572179 
! Gamma         0                0                0                0                
! Port Impedance         50               0                50               0                
9.22                           0.128597805364381 76.3532897839072 0.990625938990173 166.632644146134 0.990625938990173 166.632644146134 0.128597805364381 76.3532897839073 
! Gamma         0                0                0                0                
! Port Impedance         50               0                50               0                
9.24                           0.133224200786176 75.8719800120037 0.990013458191021 166.142294238815 0.990013458191021 166.142294238815 0.133224200786176 75.8719800120037 
! Gamma         0                0                0                0                
! Port Impedance         50               0                50               0                
9.26                           0.137835042150233 75.3906722555187 0.989381190618603 165.652559874483 0.989381190618603 165.652559874483 0.137835042150233 75.3906722555188 
! Gamma         0                0                0                0                
! Port Impedance         50               0                50               0                
9.28                           0.142429850833791 74.9094470681068 0.98872938466404 165.163460112132 0.98872938466404 165.163460112132 0.142429850833791 74.9094470681069 
! Gamma         0                0                0                0                
! Port Impedance         50               0                50               0                
9.3                            0.147008155800069 74.4283767679951 0.988058295187843 164.675013724232 0.988058295187843 164.675013724232 0.147008155800069 74.4283767679951 
! Gamma         0                0                0                0                
! Port Impedance         50               0                50               0                
9.32                           0.151569493754573 73.9475266754349 0.987368183313691 164.187239189968 0.98736818331369 164.187239189968 0.151569493754573 73.9475266754348 
! Gamma         0                0                0                0                
! Port Impedance         50               0                50               0                
9.34                           0.156113409294015 73.466956123822  0.986659316219086 163.700154688755 0.986659316219085 163.700154688755 0.156113409294015 73.466956123822  
! Gamma         0                0                0                0                
! Port Impedance         50               0                50               0                
9.36                           0.160639455047507 72.98671929122   0.985931966923245 163.213778094027 0.985931966923245 163.213778094027 0.160639455047507 72.9867192912199 
! Gamma         0                0                0                0                
! Port Impedance         50               0                50               0                
9.38                           0.16514719180982 72.5068658883228 0.98518641407249 162.728126967316 0.98518641407249 162.728126967316 0.16514719180982 72.5068658883228 
! Gamma         0                0                0                0                
! Port Impedance         50               0                50               0                
9.4                            0.169636188666506 72.0274417308707 0.984422941723493 162.243218552601 0.984422941723493 162.243218552601 0.169636188666506 72.0274417308708 
! Gamma         0                0                0                0                
! Port Impedance         50               0                50               0                
9.42                           0.174106023110766 71.5484892184718 0.983641839124654 161.759069770962 0.983641839124654 161.759069770962 0.174106023110766 71.5484892184719 
! Gamma         0                0                0                0                
! Port Impedance         50               0                50               0                
9.44                           0.178556281151954 71.0700477371442 0.982843400495944 161.275697215501 0.982843400495945 161.275697215501 0.178556281151954 71.0700477371443 
! Gamma         0                0                0                0                
! Port Impedance         50               0                50               0                
9.46                           0.182986557415657 70.5921539993497 0.982027924807507 160.793117146568 0.982027924807507 160.793117146568 0.182986557415657 70.5921539993497 
! Gamma         0                0                0                0                
! Port Impedance         50               0                50               0                
9.48                           0.18739645523532 70.1148423325165 0.981195715557314 160.311345487262 0.981195715557314 160.311345487262 0.18739645523532 70.1148423325165 
! Gamma         0                0                0                0                
! Port Impedance         50               0                50               0                
9.5                            0.191785586735391 69.6381449249144 0.980347080548193 159.830397819229 0.980347080548193 159.830397819229 0.191785586735391 69.6381449249144 
! Gamma         0                0                0                0                
! Port Impedance         50               0                50               0                
9.52                           0.196153572906005 69.1620920360409 0.979482331664496 159.350289378747 0.979482331664496 159.350289378747 0.196153572906005 69.1620920360409 
! Gamma         0                0                0                0                
! Port Impedance         50               0                50               0                
9.54                           0.200500043669242 68.6867121773553 0.978601784648721 158.871035053091 0.97860178464872 158.871035053091 0.200500043669242 68.6867121773553 
! Gamma         0                0                0                0                
! Port Impedance         50               0                50               0                
9.56                           0.204824637936991 68.212032268123  0.977705758878336 158.392649377194 0.977705758878336 158.392649377194 0.204824637936991 68.212032268123  
! Gamma         0                0                0                0                
! Port Impedance         50               0                50               0                
9.58                           0.209127003660503 67.7380777702944 0.976794577143122 157.915146530585 0.976794577143122 157.915146530585 0.209127003660503 67.7380777702944 
! Gamma         0                0                0                0                
! Port Impedance         50               0                50               0                
9.6                            0.2134067978717  67.2648728056515 0.975868565423263 157.438540334614 0.975868565423263 157.438540334614 0.213406797871699 67.2648728056515 
! Gamma         0                0                0                0                
! Port Impedance         50               0                50               0                
9.62                           0.217663686716334 66.7924402579068 0.97492805266847 156.962844249952 0.97492805266847 156.962844249952 0.217663686716334 66.7924402579069 
! Gamma         0                0                0                0                
! Port Impedance         50               0                50               0                
9.64                           0.221897345479123 66.3208018619887 0.973973370578387 156.488071374374 0.973973370578387 156.488071374374 0.221897345479123 66.3208018619887 
! Gamma         0                0                0                0                
! Port Impedance         50               0                50               0                
9.66                           0.226107458600958 65.8499782823844 0.973004853384517 156.014234440812 0.973004853384517 156.014234440812 0.226107458600958 65.8499782823843 
! Gamma         0                0                0                0                
! Port Impedance         50               0                50               0                
9.68                           0.230293719688319 65.3799891821086 0.972022837633915 155.54134581568  0.972022837633916 155.54134581568  0.230293719688319 65.3799891821086 
! Gamma         0                0                0                0                
! Port Impedance         50               0                50               0                
9.7                            0.234455831515063 64.9108532836176 0.971027661974871 155.069417497467 0.971027661974871 155.069417497467 0.234455831515063 64.9108532836176 
! Gamma         0                0                0                0                
! Port Impedance         50               0                50               0                
9.72                           0.238593506016699 64.4425884227896 0.970019666944804 154.598461115594 0.970019666944804 154.598461115594 0.2385935060167  64.4425884227896 
! Gamma         0                0                0                0                
! Port Impedance         50               0                50               0                
9.74                           0.242706464277345 63.9752115969153 0.968999194760581 154.128487929527 0.968999194760581 154.128487929527 0.242706464277345 63.9752115969154 
! Gamma         0                0                0                0                
! Port Impedance         50               0                50               0                
9.76                           0.246794436509506 63.5087390075087 0.967966589111464 153.659508828145 0.967966589111464 153.659508828145 0.246794436509506 63.5087390075088 
! Gamma         0                0                0                0                
! Port Impedance         50               0                50               0                
9.78                           0.250857162026878 63.0431860986212 0.966922194954859 153.191534329365 0.966922194954859 153.191534329365 0.250857162026878 63.0431860986212 
! Gamma         0                0                0                0                
! Port Impedance         50               0                50               0                
9.8                            0.254894389210333 62.5785675912521 0.965866358315081 152.724574579997 0.965866358315081 152.724574579997 0.254894389210332 62.5785675912521 
! Gamma         0                0                0                0                
! Port Impedance         50               0                50               0                
9.82                           0.258905875467296 62.1148975143583 0.964799426085282 152.258639355854 0.964799426085282 152.258639355854 0.258905875467296 62.1148975143584 
! Gamma         0                0                0                0                
! Port Impedance         50               0                50               0                
9.84                           0.262891387184701 61.6521892328972 0.963721745832715 151.793738062088 0.963721745832715 151.793738062088 0.262891387184701 61.6521892328973 
! Gamma         0                0                0                0                
! Port Impedance         50               0                50               0                
9.86                           0.266850699675721 61.190455473278  0.962633665607486 151.329879733751 0.962633665607486 151.329879733751 0.266850699675721 61.190455473278  
! Gamma         0                0                0                0                
! Port Impedance         50               0                50               0                
9.88                           0.27078359712048 60.7297083465456 0.961535533754943 150.867073036591 0.961535533754943 150.867073036591 0.27078359712048 60.7297083465456 
! Gamma         0                0                0                0                
! Port Impedance         50               0                50               0                
9.9                            0.274689872500969 60.2699593695757 0.960427698731823 150.405326268051 0.960427698731823 150.405326268051 0.274689872500969 60.2699593695757 
! Gamma         0                0                0                0                
! Port Impedance         50               0                50               0                
9.92                           0.27856932753035 59.8112194845252 0.959310508926294 149.944647358489 0.959310508926294 149.944647358489 0.27856932753035 59.8112194845251 
! Gamma         0                0                0                0                
! Port Impedance         50               0                50               0                
9.94                           0.282421772576886 59.3534990767487 0.958184312481997 149.485043872596 0.958184312481997 149.485043872596 0.282421772576886 59.3534990767487 
! Gamma         0                0                0                0                
! Port Impedance         50               0                50               0                
9.96                           0.286247026582702 58.8968079913668 0.9570494571262  149.026523011017 0.9570494571262  149.026523011017 0.286247026582702 58.8968079913668 
! Gamma         0                0                0                0                
! Port Impedance         50               0                50               0                
9.98                           0.290044916977601 58.441155548643  0.955906290002154 148.569091612159 0.955906290002154 148.569091612159 0.290044916977601 58.4411555486431 
! Gamma         0                0                0                0                
! Port Impedance         50               0                50               0                
10                             0.293815279588146 57.9865505583134 0.95475515750573 148.112756154189 0.95475515750573 148.112756154189 0.293815279588146 57.9865505583134 
! Gamma         0                0                0                0                
! Port Impedance         50               0                50               0                
10.02                          0.297557958542235 57.5330013329886 0.953596405126436 147.657522757207 0.953596405126435 147.657522757207 0.297557958542235 57.5330013329886 
! Gamma         0                0                0                0                
! Port Impedance         50               0                50               0                
10.04                          0.301272806169387 57.0805157007378 0.952430377292849 147.203397185598 0.952430377292849 147.203397185598 0.301272806169387 57.0805157007379 
! Gamma         0                0                0                0                
! Port Impedance         50               0                50               0                
10.06                          0.304959682896958 56.6291010169458 0.951257417222552 146.750384850535 0.951257417222552 146.750384850535 0.304959682896958 56.6291010169458 
! Gamma         0                0                0                0                
! Port Impedance         50               0                50               0                
10.08                          0.308618457142506 56.1787641755289 0.950077866776596 146.29849081266  0.950077866776596 146.29849081266  0.308618457142506 56.1787641755289 
! Gamma         0                0                0                0                
! Port Impedance         50               0                50               0                
10.1                           0.312249005202524 55.7295116195797 0.948892066318553 145.847719784903 0.948892066318554 145.847719784903 0.312249005202524 55.7295116195797 
! Gamma         0                0                0                0                
! Port Impedance         50               0                50               0                
10.12                          0.315851211137756 55.2813493515056 0.947700354578178 145.398076135453 0.947700354578178 145.398076135453 0.315851211137756 55.2813493515056 
! Gamma         0                0                0                0                
! Port Impedance         50               0                50               0                
10.14                          0.319424966655305 54.8342829427164 0.946503068519702 144.949563890863 0.946503068519702 144.949563890863 0.319424966655306 54.8342829427165 
! Gamma         0                0                0                0                
! Port Impedance         50               0                50               0                
10.16                          0.322970170987767 54.3883175429097 0.945300543214792 144.502186739295 0.945300543214792 144.502186739295 0.322970170987767 54.3883175429098 
! Gamma         0                0                0                0                
! Port Impedance         50               0                50               0                
10.18                          0.326486730769564 53.9434578889995 0.944093111720154 144.055948033884 0.944093111720154 144.055948033884 0.326486730769564 53.9434578889994 
! Gamma         0                0                0                0                
! Port Impedance         50               0                50               0                
10.2                           0.329974559910718 53.4997083137227 0.942881104959821 143.610850796222 0.942881104959821 143.610850796222 0.329974559910718 53.4997083137226 
! Gamma         0                0                0                0                
! Port Impedance         50               0                50               0                
10.22                          0.333433579468251 53.0570727539602 0.941664851612083 143.166897719957 0.941664851612083 143.166897719957 0.333433579468252 53.0570727539602 
! Gamma         0                0                0                0                
! Port Impedance         50               0                50               0                
10.24                          0.336863717515419 52.6155547587997 0.940444678001067 142.724091174497 0.940444678001067 142.724091174497 0.336863717515418 52.6155547587997 
! Gamma         0                0                0                0                
! Port Impedance         50               0                50               0                
10.26                          0.340264909008959 52.1751574973674 0.939220907992952 142.282433208811 0.939220907992952 142.282433208811 0.340264909008959 52.1751574973675 
! Gamma         0                0                0                0                
! Port Impedance         50               0                50               0                
10.28                          0.343637095654578 51.7358837664502 0.937993862896776 141.84192555533  0.937993862896776 141.84192555533  0.343637095654578 51.7358837664502 
! Gamma         0                0                0                0                
! Port Impedance         50               0                50               0                
10.3                           0.346980225770827 51.2977359979295 0.936763861369818 141.402569633927 0.936763861369819 141.402569633927 0.346980225770827 51.2977359979295 
! Gamma         0                0                0                0                
! Port Impedance         50               0                50               0                
10.32                          0.350294254151584 50.8607162660432 0.935531219327519 140.964366555983 0.935531219327519 140.964366555983 0.350294254151585 50.8607162660432 
! Gamma         0                0                0                0                
! Port Impedance         50               0                50               0                
10.34                          0.353579141927303 50.4248262944911 0.934296249857886 140.527317128529 0.934296249857886 140.527317128529 0.353579141927304 50.4248262944911 
! Gamma         0                0                0                0                
! Port Impedance         50               0                50               0                
10.36                          0.356834856425204 49.9900674633983 0.933059263140352 140.09142185845  0.933059263140352 140.09142185845  0.356834856425204 49.9900674633983 
! Gamma         0                0                0                0                
! Port Impedance         50               0                50               0                
10.38                          0.360061371028589 49.556440816146  0.931820566369022 139.656680956762 0.931820566369022 139.656680956762 0.36006137102859 49.5564408161461 
! Gamma         0                0                0                0                
! Port Impedance         50               0                50               0                
10.4                           0.363258665035439 49.1239470660825 0.930580463680263 139.223094342938 0.930580463680263 139.223094342938 0.363258665035439 49.1239470660826 
! Gamma         0                0                0                0                
! Port Impedance         50               0                50               0                
10.42                          0.366426723516449 48.6925866031204 0.929339256084562 138.790661649292 0.929339256084561 138.790661649292 0.366426723516449 48.6925866031203 
! Gamma         0                0                0                0                
! Port Impedance         50               0                50               0                
10.44                          0.369565537172661 48.2623595002304 0.928097241402607 138.359382225405 0.928097241402607 138.359382225405 0.369565537172661 48.2623595002304 
! Gamma         0                0                0                0                
! Port Impedance         50               0                50               0                
10.46                          0.372675102192856 47.8332655198363 0.926854714205505 137.929255142593 0.926854714205505 137.929255142593 0.372675102192856 47.8332655198363 
! Gamma         0                0                0                0                
! Port Impedance         50               0                50               0                
10.48                          0.375755420110824 47.4053041201173 0.925611965759075 137.500279198415 0.925611965759075 137.500279198415 0.375755420110824 47.4053041201173 
! Gamma         0                0                0                0                
! Port Impedance         50               0                50               0                
10.5                           0.378806497662679 46.9784744612228 0.924369283972143 137.072452921205 0.924369283972143 137.072452921205 0.378806497662678 46.9784744612228 
! Gamma         0                0                0                0                
! Port Impedance         50               0                50               0                
10.52                          0.381828346644331 46.5527754114039 0.923126953348747 136.645774574638 0.923126953348747 136.645774574638 0.381828346644331 46.5527754114038 
! Gamma         0                0                0                0                
! Port Impedance         50               0                50               0                
10.54                          0.384820983769264 46.1282055530639 0.921885254944202 136.220242162306 0.921885254944201 136.220242162306 0.384820983769264 46.1282055530639 
! Gamma         0                0                0                0                
! Port Impedance         50               0                50               0                
10.56                          0.387784430526727 45.7047631887326 0.920644466324899 135.795853432325 0.920644466324899 135.795853432325 0.387784430526727 45.7047631887326 
! Gamma         0                0                0                0                
! Port Impedance         50               0                50               0                
10.58                          0.390718713040464 45.2824463469652 0.919404861531805 135.372605881938 0.919404861531805 135.372605881938 0.390718713040464 45.2824463469652 
! Gamma         0                0                0                0                
! Port Impedance         50               0                50               0                
10.6                           0.393623861928101 44.8612527881679 0.918166711047524 134.950496762143 0.918166711047524 134.950496762143 0.393623861928101 44.8612527881679 
! Gamma         0                0                0                0                
! Port Impedance         50               0                50               0                
10.62                          0.396499912161284 44.4411800103537 0.916930281766885 134.529523082305 0.916930281766885 134.529523082305 0.396499912161284 44.4411800103537 
! Gamma         0                0                0                0                
! Port Impedance         50               0                50               0                
10.64                          0.399346902926686 44.0222252548264 0.915695836970915 134.109681614786 0.915695836970915 134.109681614786 0.399346902926686 44.0222252548264 
! Gamma         0                0                0                0                
! Port Impedance         50               0                50               0                
10.66                          0.402164877487973 43.6043855117975 0.914463636304153 133.690968899557 0.914463636304153 133.690968899557 0.402164877487973 43.6043855117975 
! Gamma         0                0                0                0                
! Port Impedance         50               0                50               0                
10.68                          0.404953883048816 43.1876575259333 0.91323393575518 133.273381248811 0.91323393575518 133.273381248811 0.404953883048816 43.1876575259332 
! Gamma         0                0                0                0                
! Port Impedance         50               0                50               0                
10.7                           0.407713970617052 42.7720378018351 0.912006987640293 132.856914751555 0.912006987640292 132.856914751555 0.407713970617052 42.7720378018351 
! Gamma         0                0                0                0                
! Port Impedance         50               0                50               0                
10.72                          0.410445194870064 42.3575226094523 0.910783040590218 132.441565278194 0.910783040590217 132.441565278194 0.410445194870064 42.3575226094523 
! Gamma         0                0                0                0                
! Port Impedance         50               0                50               0                
10.74                          0.413147614021453 41.944107989428  0.909562339539776 132.027328485094 0.909562339539776 132.027328485094 0.413147614021453 41.944107989428  
! Gamma         0                0                0                0                
! Port Impedance         50               0                50               0                
10.76                          0.415821289689099 41.5317897583772 0.908345125720408 131.614199819123 0.908345125720408 131.614199819123 0.415821289689099 41.5317897583772 
! Gamma         0                0                0                0                
! Port Impedance         50               0                50               0                
10.78                          0.418466286764646 41.1205635140989 0.907131636655458 131.202174522164 0.907131636655458 131.202174522164 0.418466286764646 41.1205635140989 
! Gamma         0                0                0                0                
! Port Impedance         50               0                50               0                
10.8                           0.421082673284506 40.7104246407201 0.905922106158133 130.791247635607 0.905922106158133 130.791247635607 0.421082673284506 40.7104246407201 
! Gamma         0                0                0                0                
! Port Impedance         50               0                50               0                
10.82                          0.423670520302418 40.3013683137731 0.904716764332037 130.381414004804 0.904716764332037 130.381414004804 0.423670520302418 40.3013683137731 
! Gamma         0                0                0                0                
! Port Impedance         50               0                50               0                
10.84                          0.426229901763628 39.8933895052044 0.903515837574185 129.972668283492 0.903515837574185 129.972668283492 0.426229901763628 39.8933895052044 
! Gamma         0                0                0                0                
! Port Impedance         50               0                50               0                
10.86                          0.428760894380739 39.4864829883168 0.902319548580421 129.565004938185 0.902319548580421 129.565004938185 0.428760894380739 39.4864829883168 
! Gamma         0                0                0                0                
! Port Impedance         50               0                50               0                
10.88                          0.431263577511279 39.0806433426419 0.901128116353123 129.158418252522 0.901128116353123 129.158418252522 0.431263577511279 39.0806433426419 
! Gamma         0                0                0                0                
! Port Impedance         50               0                50               0                
10.9                           0.43373803303702 38.6758649587456 0.899941756211128 128.752902331577 0.899941756211128 128.752902331577 0.43373803303702 38.6758649587456 
! Gamma         0                0                0                0                
! Port Impedance         50               0                50               0                
10.92                          0.436184345245101 38.2721420429633 0.898760679801769 128.348451106125 0.898760679801769 128.348451106125 0.436184345245101 38.2721420429633 
! Gamma         0                0                0                0                
! Port Impedance         50               0                50               0                
10.94                          0.438602600710976 37.8694686220672 0.897585095114952 127.945058336869 0.897585095114952 127.945058336869 0.438602600710976 37.8694686220672 
! Gamma         0                0                0                0                
! Port Impedance         50               0                50               0                
10.96                          0.440992888183227 37.4678385478626 0.896415206499161 127.542717618614 0.896415206499162 127.542717618614 0.440992888183227 37.4678385478626 
! Gamma         0                0                0                0                
! Port Impedance         50               0                50               0                
10.98                          0.44335529847027 37.0672455017159 0.89525121467934 127.141422384398 0.89525121467934 127.141422384398 0.44335529847027 37.0672455017159 
! Gamma         0                0                0                0                
! Port Impedance         50               0                50               0                
11                             0.445689924328962 36.6676829990113 0.894093316776521 126.741165909568 0.894093316776522 126.741165909568 0.445689924328962 36.6676829990113 
! Gamma         0                0                0                0                
! Port Impedance         50               0                50               0                
11.02                          0.447996860355157 36.2691443935378 0.892941706329164 126.341941315811 0.892941706329164 126.341941315811 0.447996860355158 36.2691443935378 
! Gamma         0                0                0                0                
! Port Impedance         50               0                50               0                
11.04                          0.450276202876205 35.8716228818049 0.891796573316076 125.94374157513  0.891796573316075 125.94374157513  0.450276202876205 35.8716228818049 
! Gamma         0                0                0                0                
! Port Impedance         50               0                50               0                
11.06                          0.452528049845414 35.4751115072881 0.89065810418087 125.546559513763 0.89065810418087 125.546559513763 0.452528049845415 35.4751115072881 
! Gamma         0                0                0                0                
! Port Impedance         50               0                50               0                
11.08                          0.454752500738502 35.079603164603  0.889526481857861 125.150387816054 0.889526481857861 125.150387816054 0.454752500738503 35.079603164603  
! Gamma         0                0                0                0                
! Port Impedance         50               0                50               0                
11.1                           0.456949656452021 34.6850906036081 0.88840188579932 124.75521902826  0.88840188579932 124.75521902826  0.456949656452021 34.6850906036081 
! Gamma         0                0                0                0                
! Port Impedance         50               0                50               0                
11.12                          0.45911961920378 34.2915664334367 0.887284492004021 124.361045562308 0.887284492004021 124.361045562308 0.459119619203781 34.2915664334367 
! Gamma         0                0                0                0                
! Port Impedance         50               0                50               0                
11.14                          0.461262492435268 33.8990231264572 0.886174473047005 123.967859699491 0.886174473047005 123.967859699491 0.461262492435268 33.8990231264572 
! Gamma         0                0                0                0                
! Port Impedance         50               0                50               0                
11.16                          0.463378380716061 33.5074530221617 0.885071998110464 123.575653594101 0.885071998110464 123.575653594101 0.463378380716061 33.5074530221617 
! Gamma         0                0                0                0                
! Port Impedance         50               0                50               0                
11.18                          0.46546738965024 33.116848330984  0.883977233015715 123.184419277014 0.883977233015715 123.184419277014 0.46546738965024 33.116848330984  
! Gamma         0                0                0                0                
! Port Impedance         50               0                50               0                
11.2                           0.467529625784786 32.7272011380459 0.882890340256156 122.794148659202 0.882890340256157 122.794148659202 0.467529625784786 32.7272011380459 
! Gamma         0                0                0                0                
! Port Impedance         50               0                50               0                
11.22                          0.469565196519974 32.3385034068318 0.881811479031155 122.404833535194 0.881811479031155 122.404833535194 0.469565196519974 32.3385034068318 
! Gamma         0                0                0                0                
! Port Impedance         50               0                50               0                
11.24                          0.471574210021735 31.9507469827932 0.880740805280795 122.016465586473 0.880740805280795 122.016465586473 0.471574210021735 31.9507469827932 
! Gamma         0                0                0                0                
! Port Impedance         50               0                50               0                
11.26                          0.473556775135994 31.5639235968817 0.879678471721429 121.629036384808 0.879678471721429 121.629036384808 0.473556775135994 31.5639235968817 
! Gamma         0                0                0                0                
! Port Impedance         50               0                50               0                
11.28                          0.475513001304962 31.1780248690114 0.878624627881954 121.24253739553  0.878624627881954 121.24253739553  0.475513001304962 31.1780248690114 
! Gamma         0                0                0                0                
! Port Impedance         50               0                50               0                
11.3                           0.477442998485376 30.7930423114508 0.877579420140768 120.856959980744 0.877579420140768 120.856959980744 0.477442998485377 30.7930423114508 
! Gamma         0                0                0                0                
! Port Impedance         50               0                50               0                
11.32                          0.479346877068666 30.4089673321452 0.876542991763333 120.472295402479 0.876542991763333 120.472295402479 0.479346877068665 30.4089673321452 
! Gamma         0                0                0                0                
! Port Impedance         50               0                50               0                
11.34                          0.481224747803031 30.0257912379688 0.875515482940302 120.088534825774 0.875515482940302 120.088534825774 0.481224747803031 30.0257912379688 
! Gamma         0                0                0                0                
! Port Impedance         50               0                50               0                
11.36                          0.483076721717431 29.643505237907  0.874497030826134 119.705669321706 0.874497030826134 119.705669321706 0.483076721717431 29.643505237907  
! Gamma         0                0                0                0                
! Port Impedance         50               0                50               0                
11.38                          0.484902910047431 29.2621004461714 0.873487769578164 119.323689870351 0.873487769578165 119.323689870351 0.484902910047431 29.2621004461714 
! Gamma         0                0                0                0                
! Port Impedance         50               0                50               0                
11.4                           0.486703424162922 28.8815678852438 0.87248783039606 118.942587363689 0.87248783039606 118.942587363689 0.486703424162922 28.8815678852438 
! Gamma         0                0                0                0                
! Port Impedance         50               0                50               0                
11.42                          0.488478375497671 28.501898488855  0.871497341561621 118.56235260844  0.871497341561621 118.56235260844  0.488478375497671 28.501898488855  
! Gamma         0                0                0                0                
! Port Impedance         50               0                50               0                
11.44                          0.490227875480688 28.1230831048935 0.870516428478873 118.182976328846 0.870516428478873 118.182976328846 0.490227875480688 28.1230831048935 
! Gamma         0                0                0                0                
! Port Impedance         50               0                50               0                
11.46                          0.491952035469384 27.7451124982486 0.869545213714401 117.804449169383 0.8695452137144  117.804449169383 0.491952035469384 27.7451124982486 
! Gamma         0                0                0                0                
! Port Impedance         50               0                50               0                
11.48                          0.493650966684498 27.3679773535875 0.868583817037892 117.426761697424 0.868583817037892 117.426761697424 0.493650966684498 27.3679773535875 
! Gamma         0                0                0                0                
! Port Impedance         50               0                50               0                
11.5                           0.495324780146767 26.9916682780652 0.867632355462819 117.049904405825 0.867632355462819 117.049904405825 0.495324780146767 26.9916682780652 
! Gamma         0                0                0                0                
! Port Impedance         50               0                50               0                
11.52                          0.496973586615314 26.6161758039706 0.866690943287252 116.673867715466 0.866690943287252 116.673867715466 0.496973586615314 26.6161758039706 
! Gamma         0                0                0                0                
! Port Impedance         50               0                50               0                
11.54                          0.498597496527727 26.2414903913072 0.865759692134728 116.298641977725 0.865759692134727 116.298641977725 0.498597496527727 26.2414903913072 
! Gamma         0                0                0                0                
! Port Impedance         50               0                50               0                
11.56                          0.500196619941805 25.8676024303109 0.864838710995158 115.92421747689  0.864838710995158 115.92421747689  0.500196619941805 25.8676024303109 
! Gamma         0                0                0                0                
! Port Impedance         50               0                50               0                
11.58                          0.501771066478945 25.4945022439033 0.863928106265732 115.550584432517 0.863928106265732 115.550584432517 0.501771066478945 25.4945022439032 
! Gamma         0                0                0                0                
! Port Impedance         50               0                50               0                
11.6                           0.503320945269132 25.1221800900842 0.863027981791776 115.17773300173  0.863027981791776 115.17773300173  0.503320945269132 25.1221800900842 
! Gamma         0                0                0                0                
! Port Impedance         50               0                50               0                
11.62                          0.504846364897518 24.7506261642619 0.862138438907529 114.805653281457 0.862138438907529 114.805653281457 0.504846364897518 24.7506261642619 
! Gamma         0                0                0                0                
! Port Impedance         50               0                50               0                
11.64                          0.506347433352555 24.3798306015221 0.861259576476822 114.434335310615 0.861259576476822 114.434335310615 0.506347433352555 24.3798306015221 
! Gamma         0                0                0                0                
! Port Impedance         50               0                50               0                
11.66                          0.507824257975655 24.0097834788374 0.8603914909336  114.063769072235 0.8603914909336  114.063769072235 0.507824257975655 24.0097834788374 
! Gamma         0                0                0                0                
! Port Impedance         50               0                50               0                
11.68                          0.509276945412339 23.6404748172173 0.859534276322277 113.693944495532 0.859534276322277 113.693944495532 0.509276945412339 23.6404748172173 
! Gamma         0                0                0                0                
! Port Impedance         50               0                50               0                
11.7                           0.510705601564867 23.2718945838001 0.858688024337886 113.32485145792  0.858688024337886 113.32485145792  0.510705601564867 23.2718945838001 
! Gamma         0                0                0                0                
! Port Impedance         50               0                50               0                
11.72                          0.512110331546298 22.9040326938868 0.857852824366003 112.956479786972 0.857852824366004 112.956479786972 0.512110331546298 22.9040326938868 
! Gamma         0                0                0                0                
! Port Impedance         50               0                50               0                
11.74                          0.513491239635965 22.5368790129181 0.857028763522402 112.588819262322 0.857028763522402 112.588819262322 0.513491239635965 22.5368790129181 
! Gamma         0                0                0                0                
! Port Impedance         50               0                50               0                
11.76                          0.514848429236326 22.1704233583967 0.856215926692438 112.221859617527 0.856215926692438 112.221859617527 0.514848429236326 22.1704233583967 
! Gamma         0                0                0                0                
! Port Impedance         50               0                50               0                
11.78                          0.516182002831172 21.8046555017527 0.855414396570111 111.855590541855 0.855414396570111 111.855590541855 0.516182002831172 21.8046555017527 
! Gamma         0                0                0                0                
! Port Impedance         50               0                50               0                
11.8                           0.517492061945154 21.4395651701568 0.854624253696811 111.490001682043 0.854624253696811 111.490001682043 0.517492061945153 21.4395651701568 
! Gamma         0                0                0                0                
! Port Impedance         50               0                50               0                
11.82                          0.518778707104603 21.0751420482791 0.853845576499699 111.125082643992 0.853845576499699 111.125082643992 0.518778707104603 21.0751420482791 
! Gamma         0                0                0                0                
! Port Impedance         50               0                50               0                
11.84                          0.520042037799624 20.7113757799956 0.853078441329714 110.760822994411 0.853078441329714 110.760822994411 0.520042037799624 20.7113757799956 
! Gamma         0                0                0                0                
! Port Impedance         50               0                50               0                
11.86                          0.521282152447407 20.3482559700439 0.852322922499192 110.397212262419 0.852322922499192 110.397212262419 0.521282152447406 20.3482559700439 
! Gamma         0                0                0                0                
! Port Impedance         50               0                50               0                
11.88                          0.522499148356763 19.9857721856281 0.851579092319066 110.034239941095 0.851579092319066 110.034239941095 0.522499148356762 19.9857721856281 
! Gamma         0                0                0                0                
! Port Impedance         50               0                50               0                
11.9                           0.523693121693831 19.6239139579737 0.850847021135638 109.671895488975 0.850847021135638 109.671895488975 0.523693121693831 19.6239139579737 
! Gamma         0                0                0                0                
! Port Impedance         50               0                50               0                
11.92                          0.524864167448935 19.2626707838346 0.850126777366896 109.310168331514 0.850126777366896 109.310168331514 0.524864167448935 19.2626707838346 
! Gamma         0                0                0                0                
! Port Impedance         50               0                50               0                
11.94                          0.526012379404565 18.9020321269516 0.849418427538372 108.949047862488 0.849418427538373 108.949047862488 0.526012379404565 18.9020321269516 
! Gamma         0                0                0                0                
! Port Impedance         50               0                50               0                
11.96                          0.527137850104454 18.5419874194648 0.848722036318523 108.588523445363 0.848722036318523 108.588523445363 0.527137850104454 18.5419874194648 
! Gamma         0                0                0                0                
! Port Impedance         50               0                50               0                
11.98                          0.528240670823719 18.1825260632795 0.848037666553605 108.228584414614 0.848037666553604 108.228584414614 0.52824067082372 18.1825260632795 
! Gamma         0                0                0                0                
! Port Impedance         50               0                50               0                
12                             0.52932093154005 17.8236374313872 0.847365379302053 107.869220076997 0.847365379302053 107.869220076997 0.52932093154005 17.8236374313872 
! Gamma         0                0                0                0                
! Port Impedance         50               0                50               0                
12.02                          0.5303787209059  17.4653108691436 0.846705233868333 107.510419712791 0.846705233868333 107.510419712791 0.5303787209059  17.4653108691436 
! Gamma         0                0                0                0                
! Port Impedance         50               0                50               0                
12.04                          0.531414126221678 17.1075356955017 0.846057287836264 107.152172576978 0.846057287836264 107.152172576978 0.531414126221678 17.1075356955018 
! Gamma         0                0                0                0                
! Port Impedance         50               0                50               0                
12.06                          0.532427233409892 16.7503012042046 0.84542159710179 106.794467900407 0.84542159710179 106.794467900407 0.532427233409892 16.7503012042046 
! Gamma         0                0                0                0                
! Port Impedance         50               0                50               0                
12.08                          0.533418126990233 16.3935966649356 0.84479821590521 106.437294890896 0.84479821590521 106.437294890896 0.533418126990233 16.3935966649356 
! Gamma         0                0                0                0                
! Port Impedance         50               0                50               0                
12.1                           0.534386890055569 16.0374113244292 0.844187196862832 106.080642734306 0.844187196862831 106.080642734306 0.53438689005557 16.0374113244292 
! Gamma         0                0                0                0                
! Port Impedance         50               0                50               0                
12.12                          0.53533360424883 15.6817344075419 0.843588590998054 105.724500595579 0.843588590998054 105.724500595579 0.535333604248829 15.6817344075419 
! Gamma         0                0                0                0                
! Port Impedance         50               0                50               0                
12.14                          0.53625834974074 15.3265551182847 0.843002447771875 105.368857619729 0.843002447771875 105.368857619729 0.53625834974074 15.3265551182847 
! Gamma         0                0                0                0                
! Port Impedance         50               0                50               0                
12.16                          0.537161205208413 14.9718626408188 0.8424288151128  105.013702932804 0.8424288151128  105.013702932804 0.537161205208412 14.9718626408188 
! Gamma         0                0                0                0                
! Port Impedance         50               0                50               0                
12.18                          0.538042247814735 14.6176461404136 0.841867739446156 104.659025642815 0.841867739446156 104.659025642815 0.538042247814735 14.6176461404136 
! Gamma         0                0                0                0                
! Port Impedance         50               0                50               0                
12.2                           0.538901553188562 14.2638947643699 0.841319265722804 104.304814840617 0.841319265722804 104.304814840617 0.538901553188562 14.2638947643699 
! Gamma         0                0                0                0                
! Port Impedance         50               0                50               0                
12.22                          0.539739195405672 13.9105976429081 0.840783437447234 103.951059600771 0.840783437447234 103.951059600771 0.539739195405672 13.9105976429081 
! Gamma         0                0                0                0                
! Port Impedance         50               0                50               0                
12.24                          0.540555246970475 13.5577438900222 0.840260296705048 103.597748982369 0.840260296705048 103.597748982369 0.540555246970475 13.5577438900222 
! Gamma         0                0                0                0                
! Port Impedance         50               0                50               0                
12.26                          0.541349778798436 13.2053226043012 0.839749884189819 103.244872029816 0.839749884189819 103.244872029816 0.541349778798436 13.2053226043012 
! Gamma         0                0                0                0                
! Port Impedance         50               0                50               0                
12.28                          0.542122860199225 12.8533228697189 0.839252239229319 102.892417773599 0.83925223922932 102.892417773599 0.542122860199225 12.8533228697189 
! Gamma         0                0                0                0                
! Port Impedance         50               0                50               0                
12.3                           0.542874558860529 12.5017337563911 0.838767399811124 102.540375231011 0.838767399811124 102.540375231011 0.542874558860529 12.5017337563911 
! Gamma         0                0                0                0                
! Port Impedance         50               0                50               0                
12.32                          0.543604940832543 12.1505443213044 0.838295402607568 102.188733406852 0.838295402607567 102.188733406852 0.543604940832543 12.1505443213044 
! Gamma         0                0                0                0                
! Port Impedance         50               0                50               0                
12.34                          0.544314070513102 11.799743609014  0.837836283000067 101.837481294099 0.837836283000066 101.837481294099 0.544314070513102 11.799743609014  
! Gamma         0                0                0                0                
! Port Impedance         50               0                50               0                
12.36                          0.54500201063344 11.4493206523142 0.837390075102797 101.486607874552 0.837390075102797 101.486607874552 0.54500201063344 11.4493206523142 
! Gamma         0                0                0                0                
! Port Impedance         50               0                50               0                
12.38                          0.545668822244559 11.0992644728806 0.836956811785727 101.136102119446 0.836956811785727 101.136102119446 0.545668822244559 11.0992644728806 
! Gamma         0                0                0                0                
! Port Impedance         50               0                50               0                
12.4                           0.546314564704187 10.7495640818853 0.836536524696991 100.785952990044 0.836536524696991 100.785952990044 0.546314564704186 10.7495640818853 
! Gamma         0                0                0                0                
! Port Impedance         50               0                50               0                
12.42                          0.546939295664304 10.4002084805876 0.836129244284617 100.4361494382   0.836129244284617 100.4361494382   0.546939295664304 10.4002084805876 
! Gamma         0                0                0                0                
! Port Impedance         50               0                50               0                
12.44                          0.54754307105924 10.0511866608977 0.835734999817601 100.086680406902 0.835734999817601 100.086680406902 0.54754307105924 10.0511866608977 
! Gamma         0                0                0                0                
! Port Impedance         50               0                50               0                
12.46                          0.548125945094292 9.70248760591791 0.835353819406317 99.7375348307834 0.835353819406317 99.7375348307834 0.548125945094292 9.70248760591791 
! Gamma         0                0                0                0                
! Port Impedance         50               0                50               0                
12.48                          0.548687970234881 9.35410029045929 0.834985730022272 99.3887016366216 0.834985730022272 99.3887016366216 0.548687970234881 9.35410029045929 
! Gamma         0                0                0                0                
! Port Impedance         50               0                50               0                
12.5                           0.549229197196212 9.00601368153688 0.834630757517199 99.0401697438067 0.8346307575172  99.0401697438067 0.549229197196212 9.00601368153688 
! Gamma         0                0                0                0                
! Port Impedance         50               0                50               0                
12.52                          0.54974967493343 8.65821673884227 0.834288926641487 98.6919280647926 0.834288926641487 98.6919280647926 0.54974967493343 8.65821673884227 
! Gamma         0                0                0                0                
! Port Impedance         50               0                50               0                
12.54                          0.55024945063225 8.31069841519604 0.833960261061948 98.3439655055272 0.833960261061948 98.3439655055272 0.55024945063225 8.31069841519604 
! Gamma         0                0                0                0                
! Port Impedance         50               0                50               0                
12.56                          0.550728569700063 7.96344765698017 0.833644783378916 97.9962709658628 0.833644783378916 97.9962709658628 0.550728569700063 7.96344765698017 
! Gamma         0                0                0                0                
! Port Impedance         50               0                50               0                
12.58                          0.551187075757491 7.61645340455042 0.833342515142685 97.6488333399469 0.833342515142685 97.6488333399469 0.551187075757491 7.61645340455042 
! Gamma         0                0                0                0                
! Port Impedance         50               0                50               0                
12.6                           0.551625010630377 7.26970459263179 0.833053476869278 97.3016415165963 0.833053476869278 97.3016415165963 0.551625010630378 7.26970459263179 
! Gamma         0                0                0                0                
! Port Impedance         50               0                50               0                
12.62                          0.552042414342217 6.9231901506948  0.832777688055543 96.9546843796532 0.832777688055543 96.9546843796532 0.552042414342217 6.9231901506948  
! Gamma         0                0                0                0                
! Port Impedance         50               0                50               0                
12.64                          0.55243932510699 6.57689900331668 0.832515167193593 96.6079508083249 0.832515167193593 96.6079508083249 0.55243932510699 6.57689900331668 
! Gamma         0                0                0                0                
! Port Impedance         50               0                50               0                
12.66                          0.552815779322414 6.23082007052493 0.832265931784563 96.2614296775078 0.832265931784563 96.2614296775078 0.552815779322414 6.23082007052492 
! Gamma         0                0                0                0                
! Port Impedance         50               0                50               0                
12.68                          0.553171811563583 5.88494226812708 0.83202999835171 95.9151098580969 0.83202999835171 95.9151098580969 0.553171811563583 5.88494226812708 
! Gamma         0                0                0                0                
! Port Impedance         50               0                50               0                
12.7                           0.553507454576999 5.53925450802551 0.831807382452837 95.5689802172807 0.831807382452837 95.5689802172807 0.553507454576998 5.53925450802552 
! Gamma         0                0                0                0                
! Port Impedance         50               0                50               0                
12.72                          0.553822739274969 5.19374569851837 0.83159809869205 95.2230296188227 0.83159809869205 95.2230296188227 0.553822739274969 5.19374569851837 
! Gamma         0                0                0                0                
! Port Impedance         50               0                50               0                
12.74                          0.554117694730381 4.84840474458856 0.831402160730843 94.8772469233311 0.831402160730843 94.8772469233311 0.554117694730381 4.84840474458856 
! Gamma         0                0                0                0                
! Port Impedance         50               0                50               0                
12.76                          0.554392348171831 4.50322054817956 0.831219581298519 94.5316209885151 0.831219581298519 94.5316209885151 0.554392348171831 4.50322054817956 
! Gamma         0                0                0                0                
! Port Impedance         50               0                50               0                
12.78                          0.554646724979103 4.15818200846136 0.831050372201931 94.1861406694321 0.831050372201931 94.1861406694321 0.554646724979103 4.15818200846136 
! Gamma         0                0                0                0                
! Port Impedance         50               0                50               0                
12.8                           0.554880848678993 3.81327802208443 0.830894544334564 93.8407948187229 0.830894544334565 93.8407948187229 0.554880848678993 3.81327802208442 
! Gamma         0                0                0                0                
! Port Impedance         50               0                50               0                
12.82                          0.555094740941465 3.46849748342513 0.830752107684942 93.495572286838  0.830752107684942 93.495572286838  0.555094740941465 3.46849748342513 
! Gamma         0                0                0                0                
! Port Impedance         50               0                50               0                
12.84                          0.555288421576145 3.12382928482191 0.830623071344362 93.1504619222555 0.830623071344363 93.1504619222555 0.555288421576145 3.12382928482191 
! Gamma         0                0                0                0                
! Port Impedance         50               0                50               0                
12.86                          0.555461908529131 2.77926231680264 0.830507443513966 92.8054525716897 0.830507443513966 92.8054525716897 0.555461908529131 2.77926231680264 
! Gamma         0                0                0                0                
! Port Impedance         50               0                50               0                
12.88                          0.555615217880127 2.43478546830564 0.830405231511136 92.4605330802936 0.830405231511136 92.4605330802936 0.555615217880127 2.43478546830564 
! Gamma         0                0                0                0                
! Port Impedance         50               0                50               0                
12.9                           0.555748363839888 2.09038762689288 0.830316441775225 92.1156922918542 0.830316441775225 92.1156922918542 0.555748363839888 2.09038762689288 
! Gamma         0                0                0                0                
! Port Impedance         50               0                50               0                
12.92                          0.555861358747977 1.7460576789583  0.830241079872616 91.7709190489817 0.830241079872616 91.7709190489817 0.555861358747976 1.7460576789583  
! Gamma         0                0                0                0                
! Port Impedance         50               0                50               0                
12.94                          0.555954213070825 1.40178450993013 0.83017915050111 91.426202193294  0.830179150501109 91.426202193294  0.555954213070825 1.40178450993013 
! Gamma         0                0                0                0                
! Port Impedance         50               0                50               0                
12.96                          0.556026935400097 1.05755700446912 0.830130657493645 91.0815305655968 0.830130657493645 91.0815305655968 0.556026935400097 1.05755700446912 
! Gamma         0                0                0                0                
! Port Impedance         50               0                50               0                
12.98                          0.556079532451353 0.713364046663625 0.830095603821356 90.7368930060597 0.830095603821356 90.7368930060597 0.556079532451354 0.713364046663624 
! Gamma         0                0                0                0                
! Port Impedance         50               0                50               0                
13                             0.556112009063014 0.369194520220376 0.830073991595947 90.3922783543892 0.830073991595947 90.3922783543892 0.556112009063013 0.369194520220376 
! Gamma         0                0                0                0                
! Port Impedance         50               0                50               0                
13.02                          0.556124368195608 0.025037308654754 0.830065822071409 90.0476754500006 0.830065822071409 90.0476754500006 0.556124368195609 0.025037308654754 
! Gamma         0                0                0                0                
! Port Impedance         50               0                50               0                
13.04                          0.556116610931335 -0.319118704521607 0.830071095645065 89.7030731321866 0.830071095645065 89.7030731321866 0.556116610931334 -0.319118704521607 
! Gamma         0                0                0                0                
! Port Impedance         50               0                50               0                
13.06                          0.556088736473898 -0.663284635613392 0.830089811857943 89.3584602402869 0.830089811857943 89.3584602402869 0.556088736473898 -0.663284635613391 
! Gamma         0                0                0                0                
! Port Impedance         50               0                50               0                
13.08                          0.55604074214865 -1.00747160055426 0.830121969394482 89.0138256138568 0.830121969394483 89.0138256138568 0.55604074214865 -1.00747160055426 
! Gamma         0                0                0                0                
! Port Impedance         50               0                50               0                
13.1                           0.555972623403019 -1.3516907147185 0.830167566081575 88.6691580928365 0.830167566081575 88.6691580928365 0.555972623403019 -1.3516907147185 
! Gamma         0                0                0                0                
! Port Impedance         50               0                50               0                
13.12                          0.555884373807235 -1.69595309273152 0.830226598886929 88.3244465177223 0.830226598886929 88.3244465177223 0.555884373807235 -1.69595309273152 
! Gamma         0                0                0                0                
! Port Impedance         50               0                50               0                
13.14                          0.555775985055349 -2.04026984827762 0.83029906391677 87.9796797297396 0.830299063916769 87.9796797297396 0.55577598505535 -2.04026984827762 
! Gamma         0                0                0                0                
! Port Impedance         50               0                50               0                
13.16                          0.555647446966554 -2.38465209390493 0.830384956412873 87.6348465710188 0.830384956412873 87.6348465710188 0.555647446966554 -2.38465209390493 
! Gamma         0                0                0                0                
! Port Impedance         50               0                50               0                
13.18                          0.555498747486795 -2.72911094082676 0.830484270748924 87.289935884775  0.830484270748924 87.289935884775  0.555498747486795 -2.72911094082676 
! Gamma         0                0                0                0                
! Port Impedance         50               0                50               0                
13.2                           0.555329872690694 -3.07365749871814 0.830597000426209 86.9449365154918 0.830597000426209 86.9449365154918 0.555329872690694 -3.07365749871814 
! Gamma         0                0                0                0                
! Port Impedance         50               0                50               0                
13.22                          0.55514080678377 -3.4183028755069 0.830723138068644 86.5998373091106 0.830723138068644 86.5998373091106 0.55514080678377 -3.4183028755069 
! Gamma         0                0                0                0                
! Port Impedance         50               0                50               0                
13.24                          0.554931532104976 -3.76305817715945 0.83086267541712 86.2546271132249 0.83086267541712 86.2546271132249 0.554931532104976 -3.76305817715944 
! Gamma         0                0                0                0                
! Port Impedance         50               0                50               0                
13.26                          0.55470202912954 -4.10793450745878 0.831015603323198 85.9092947772823 0.831015603323198 85.9092947772823 0.55470202912954 -4.10793450745878 
! Gamma         0                0                0                0                
! Port Impedance         50               0                50               0                
13.28                          0.554452276472135 -4.4529429677759 0.831181911742117 85.5638291527926 0.831181911742117 85.5638291527926 0.554452276472135 -4.4529429677759 
! Gamma         0                0                0                0                
! Port Impedance         50               0                50               0                
13.3                           0.554182250890364 -4.79809465683199 0.831361589725143 85.218219093545  0.831361589725143 85.218219093545  0.554182250890364 -4.79809465683199 
! Gamma         0                0                0                0                
! Port Impedance         50               0                50               0                
13.32                          0.553891927288579 -5.14340067045244 0.831554625411249 84.8724534558332 0.831554625411249 84.8724534558332 0.553891927288579 -5.14340067045244 
! Gamma         0                0                0                0                
! Port Impedance         50               0                50               0                
13.34                          0.553581278722033 -5.48887210131031 0.831761006018118 84.5265210986903 0.831761006018118 84.5265210986903 0.553581278722033 -5.4888721013103 
! Gamma         0                0                0                0                
! Port Impedance         50               0                50               0                
13.36                          0.553250276401375 -5.83452003865961 0.83198071783248 84.1804108841345 0.83198071783248 84.1804108841345 0.553250276401375 -5.83452003865961 
! Gamma         0                0                0                0                
! Port Impedance         50               0                50               0                
13.38                          0.552898889697494 -6.18035556805699 0.832213746199789 83.8341116774251 0.832213746199788 83.8341116774251 0.552898889697494 -6.18035556805699 
! Gamma         0                0                0                0                
! Port Impedance         50               0                50               0                
13.4                           0.552527086146725 -6.52638977107141 0.832460075513212 83.4876123473303 0.832460075513211 83.4876123473303 0.552527086146725 -6.5263897710714 
! Gamma         0                0                0                0                
! Port Impedance         50               0                50               0                
13.42                          0.552134831456416 -6.87263372498071 0.832719689201968 83.1409017664082 0.832719689201968 83.1409017664082 0.552134831456416 -6.87263372498072 
! Gamma         0                0                0                0                
! Port Impedance         50               0                50               0                
13.44                          0.551722089510868 -7.21909850245461 0.832992569718984 82.7939688113005 0.832992569718984 82.7939688113005 0.551722089510868 -7.21909850245461 
! Gamma         0                0                0                0                
! Port Impedance         50               0                50               0                
13.46                          0.551288822377667 -7.56579517122335 0.833278698527891 82.4468023630402 0.833278698527891 82.4468023630402 0.551288822377667 -7.56579517122335 
! Gamma         0                0                0                0                
! Port Impedance         50               0                50               0                
13.48                          0.550834990314405 -7.91273479373038 0.833578056089347 82.0993913073748 0.833578056089347 82.0993913073748 0.550834990314406 -7.91273479373037 
! Gamma         0                0                0                0                
! Port Impedance         50               0                50               0                
13.5                           0.550360551775805 -8.25992842676989 0.833890621846693 81.7517245351043 0.833890621846693 81.7517245351043 0.550360551775805 -8.25992842676989 
! Gamma         0                0                0                0                
! Port Impedance         50               0                50               0                
13.52                          0.549865463421261 -8.60738712110674 0.834216374210945 81.4037909424359 0.834216374210945 81.4037909424359 0.549865463421261 -8.60738712110673 
! Gamma         0                0                0                0                
! Port Impedance         50               0                50               0                
13.54                          0.549349680122812 -8.95512192107858 0.83455529054511 81.0555794313564 0.83455529054511 81.0555794313564 0.549349680122812 -8.95512192107858 
! Gamma         0                0                0                0                
! Port Impedance         50               0                50               0                
13.56                          0.548813154973547 -9.30314386418052 0.83490734714785 80.7070789100214 0.83490734714785 80.7070789100214 0.548813154973547 -9.30314386418052 
! Gamma         0                0                0                0                
! Port Impedance         50               0                50               0                
13.58                          0.548255839296465 -9.65146398062878 0.835272519236466 80.3582782931644 0.835272519236466 80.3582782931644 0.548255839296465 -9.65146398062878 
! Gamma         0                0                0                0                
! Port Impedance         50               0                50               0                
13.6                           0.547677682653799 -10.0000932929058 0.83565078092923 80.0091665025246 0.83565078092923 80.0091665025246 0.547677682653799 -10.0000932929057 
! Gamma         0                0                0                0                
! Port Impedance         50               0                50               0                
13.62                          0.547078632856822 -10.3490428152829 0.836042105227045 79.6597324672956 0.836042105227045 79.6597324672956 0.547078632856822 -10.3490428152829 
! Gamma         0                0                0                0                
! Port Impedance         50               0                50               0                
13.64                          0.546458635976137 -10.6983235533229 0.836446463994446 79.3099651245949 0.836446463994446 79.3099651245949 0.546458635976137 -10.6983235533229 
! Gamma         0                0                0                0                
! Port Impedance         50               0                50               0                
13.66                          0.545817636352482 -11.0479465033578 0.836863827939946 78.9598534199554 0.836863827939946 78.9598534199554 0.545817636352482 -11.0479465033578 
! Gamma         0                0                0                0                
! Port Impedance         50               0                50               0                
13.68                          0.545155576608057 -11.3979226519448 0.837294166595713 78.60938630784   0.837294166595713 78.60938630784   0.545155576608057 -11.3979226519448 
! Gamma         0                0                0                0                
! Port Impedance         50               0                50               0                
13.7                           0.54447239765838 -11.7482629752971 0.837737448296602 78.2585527521793 0.837737448296602 78.2585527521793 0.54447239765838 -11.7482629752971 
! Gamma         0                0                0                0                
! Port Impedance         50               0                50               0                
13.72                          0.543768038724712 -12.0989784386897 0.838193640158522 77.9073417269339 0.838193640158522 77.9073417269339 0.543768038724712 -12.0989784386897 
! Gamma         0                0                0                0                
! Port Impedance         50               0                50               0                
13.74                          0.543042437347035 -12.4500799958391 0.838662708056157 77.5557422166818 0.838662708056156 77.5557422166818 0.543042437347035 -12.4500799958391 
! Gamma         0                0                0                0                
! Port Impedance         50               0                50               0                
13.76                          0.542295529397635 -12.8015785882553 0.839144616600036 77.2037432172328 0.839144616600036 77.2037432172328 0.542295529397635 -12.8015785882553 
! Gamma         0                0                0                0                
! Port Impedance         50               0                50               0                
13.78                          0.541527249095281 -13.1534851445676 0.83963932911296 76.851333736268  0.83963932911296 76.851333736268  0.541527249095281 -13.1534851445676 
! Gamma         0                0                0                0                
! Port Impedance         50               0                50               0                
13.8                           0.54073752902003 -13.5058105798199 0.840146807605777 76.4985027940087 0.840146807605777 76.4985027940087 0.54073752902003 -13.5058105798199 
! Gamma         0                0                0                0                
! Port Impedance         50               0                50               0                
13.82                          0.539926300128677 -13.8585657947375 0.840667012752524 76.1452394239132 0.840667012752524 76.1452394239132 0.539926300128677 -13.8585657947375 
! Gamma         0                0                0                0                
! Port Impedance         50               0                50               0                
13.84                          0.539093491770866 -14.2117616749628 0.841199903864934 75.7915326734031 0.841199903864934 75.7915326734031 0.539093491770866 -14.2117616749628 
! Gamma         0                0                0                0                
! Port Impedance         50               0                50               0                
13.86                          0.538239031705884 -14.5654090902599 0.841745438866308 75.4373716046198 0.841745438866308 75.4373716046197 0.538239031705884 -14.5654090902599 
! Gamma         0                0                0                0                
! Port Impedance         50               0                50               0                
13.88                          0.537362846120156 -14.9195188936867 0.842303574264762 75.0827452952121 0.842303574264762 75.0827452952121 0.537362846120156 -14.9195188936867 
! Gamma         0                0                0                0                
! Port Impedance         50               0                50               0                
13.9                           0.536464859645468 -15.274101920734 0.842874265125849 74.7276428391564 0.842874265125848 74.7276428391564 0.536464859645468 -15.274101920734 
! Gamma         0                0                0                0                
! Port Impedance         50               0                50               0                
13.92                          0.535544995377926 -15.6291689884298 0.843457465044572 74.3720533476094 0.843457465044572 74.3720533476094 0.535544995377926 -15.6291689884298 
! Gamma         0                0                0                0                
! Port Impedance         50               0                50               0                
13.94                          0.534603174897693 -15.9847308944099 0.84405312611678 74.0159659497935 0.844053126116779 74.0159659497935 0.534603174897693 -15.9847308944099 
! Gamma         0                0                0                0                
! Port Impedance         50               0                50               0                
13.96                          0.533639318289506 -16.3407984159504 0.84466119890996 73.6593697939191 0.84466119890996 73.6593697939191 0.533639318289506 -16.3407984159504 
! Gamma         0                0                0                0                
! Port Impedance         50               0                50               0                
13.98                          0.532653344164009 -16.6973823089656 0.845281632433439 73.30225404814   0.845281632433439 73.30225404814   0.532653344164009 -16.6973823089656 
! Gamma         0                0                0                0                
! Port Impedance         50               0                50               0                
14                             0.531645169679921 -17.0544933069658 0.845914374107987 72.9446079015469 0.845914374107987 72.9446079015469 0.531645169679921 -17.0544933069658 
! Gamma         0                0                0                0                
! Port Impedance         50               0                50               0                
14.02                          0.530614710567059 -17.4121421199786 0.846559369734849 72.5864205651969 0.846559369734849 72.5864205651969 0.530614710567058 -17.4121421199786 
! Gamma         0                0                0                0                
! Port Impedance         50               0                50               0                
14.04                          0.529561881150249 -17.7703394334278 0.847216563464192 72.2276812731822 0.847216563464192 72.2276812731822 0.52956188115025 -17.7703394334278 
! Gamma         0                0                0                0                
! Port Impedance         50               0                50               0                
14.06                          0.528486594374147 -18.1290959069744 0.847885897763001 71.8683792837364 0.847885897763001 71.8683792837364 0.528486594374147 -18.1290959069744 
! Gamma         0                0                0                0                
! Port Impedance         50               0                50               0                
14.08                          0.527388761828976 -18.4884221733136 0.84856731338241 71.5085038803822 0.84856731338241 71.5085038803822 0.527388761828976 -18.4884221733136 
! Gamma         0                0                0                0                
! Port Impedance         50               0                50               0                
14.1                           0.526268293777245 -18.8483288369308 0.8492607493245  71.1480443731182 0.849260749324501 71.1480443731182 0.526268293777245 -18.8483288369308 
! Gamma         0                0                0                0                
! Port Impedance         50               0                50               0                
14.12                          0.525125099181436 -19.2088264728127 0.849966142808557 70.7869900996489 0.849966142808557 70.7869900996488 0.525125099181436 -19.2088264728127 
! Gamma         0                0                0                0                
! Port Impedance         50               0                50               0                
14.14                          0.523959085732704 -19.5699256251154 0.850683429236812 70.4253304266555 0.850683429236812 70.4253304266556 0.523959085732704 -19.5699256251154 
! Gamma         0                0                0                0                
! Port Impedance         50               0                50               0                
14.16                          0.522770159880613 -19.9316368057857 0.851412542159677 70.0630547511119 0.851412542159677 70.0630547511118 0.522770159880613 -19.9316368057857 
! Gamma         0                0                0                0                
! Port Impedance         50               0                50               0                
14.18                          0.521558226863944 -20.2939704931365 0.852153413240482 69.7001525016425 0.852153413240482 69.7001525016425 0.521558226863945 -20.2939704931365 
! Gamma         0                0                0                0                
! Port Impedance         50               0                50               0                
14.2                           0.520323190742582 -20.6569371303754 0.852905972219739 69.3366131399273 0.852905972219739 69.3366131399273 0.520323190742583 -20.6569371303754 
! Gamma         0                0                0                0                
! Port Impedance         50               0                50               0                
14.22                          0.519064954430528 -21.0205471240836 0.853670146878932 68.9724261621514 0.853670146878932 68.9724261621514 0.519064954430527 -21.0205471240837 
! Gamma         0                0                0                0                
! Port Impedance         50               0                50               0                
14.24                          0.517783419730055 -21.3848108426468 0.854445863003868 68.6075811005019 0.854445863003868 68.6075811005019 0.517783419730055 -21.3848108426468 
! Gamma         0                0                0                0                
! Port Impedance         50               0                50               0                
14.26                          0.516478487367046 -21.7497386146349 0.855233044347591 68.2420675247122 0.855233044347591 68.2420675247122 0.516478487367045 -21.7497386146349 
! Gamma         0                0                0                0                
! Port Impedance         50               0                50               0                
14.28                          0.515150057027519 -22.1153407271315 0.856031612592888 67.8758750436542 0.856031612592888 67.8758750436542 0.515150057027519 -22.1153407271315 
! Gamma         0                0                0                0                
! Port Impedance         50               0                50               0                
14.3                           0.513798027395399 -22.4816274240102 0.856841487314389 67.5089933069804 0.856841487314389 67.5089933069804 0.513798027395399 -22.4816274240102 
! Gamma         0                0                0                0                
! Port Impedance         50               0                50               0                
14.32                          0.512422296191546 -22.8486089041584 0.857662585940309 67.1414120068158 0.857662585940309 67.1414120068158 0.512422296191546 -22.8486089041584 
! Gamma         0                0                0                0                
! Port Impedance         50               0                50               0                
14.34                          0.511022760214061 -23.216295319647 0.858494823713819 66.7731208795001 0.858494823713819 66.7731208795001 0.511022760214061 -23.216295319647 
! Gamma         0                0                0                0                
! Port Impedance         50               0                50               0                
14.36                          0.509599315379928 -23.584696773845 0.8593381136541  66.4041097073823 0.8593381136541  66.4041097073823 0.509599315379928 -23.584696773845 
! Gamma         0                0                0                0                
! Port Impedance         50               0                50               0                
14.38                          0.508151856767988 -23.9538233194783 0.860192366517077 66.0343683206664 0.860192366517077 66.0343683206664 0.508151856767988 -23.9538233194783 
! Gamma         0                0                0                0                
! Port Impedance         50               0                50               0                
14.4                           0.506680278663301 -24.3236849566316 0.861057490755876 65.663886599312  0.861057490755876 65.663886599312  0.506680278663301 -24.3236849566316 
! Gamma         0                0                0                0                
! Port Impedance         50               0                50               0                
14.42                          0.505184474602901 -24.6942916306929 0.861933392481021 65.2926544749865 0.861933392481021 65.2926544749865 0.505184474602901 -24.6942916306929 
! Gamma         0                0                0                0                
! Port Impedance         50               0                50               0                
14.44                          0.503664337422996 -25.0656532302385 0.862819975420396 64.9206619330739 0.862819975420396 64.9206619330739 0.503664337422995 -25.0656532302385 
! Gamma         0                0                0                0                
! Port Impedance         50               0                50               0                
14.46                          0.502119759307625 -25.43777958486  0.863717140879007 64.5478990147372 0.863717140879007 64.5478990147371 0.502119759307625 -25.43777958486  
! Gamma         0                0                0                0                
! Port Impedance         50               0                50               0                
14.48                          0.500550631838815 -25.810680462929 0.864624787698566 64.1743558190377 0.864624787698566 64.1743558190377 0.500550631838815 -25.810680462929 
! Gamma         0                0                0                0                
! Port Impedance         50               0                50               0                
14.5                           0.498956846048246 -26.1843655693023 0.865542812216934 63.8000225051107 0.865542812216934 63.8000225051107 0.498956846048246 -26.1843655693023 
! Gamma         0                0                0                0                
! Port Impedance         50               0                50               0                
14.52                          0.497338292470481 -26.5588445429634 0.86647110822745 63.4248892943973 0.86647110822745 63.4248892943973 0.497338292470481 -26.5588445429634 
! Gamma         0                0                0                0                
! Port Impedance         50               0                50               0                
14.54                          0.495694861197758 -26.9341269546027 0.867409566938179 63.0489464729356 0.867409566938179 63.0489464729356 0.495694861197758 -26.9341269546028 
! Gamma         0                0                0                0                
! Port Impedance         50               0                50               0                
14.56                          0.494026441936406 -27.3102223041326 0.868358076931123 62.672184393709  0.868358076931123 62.6721843937091 0.494026441936406 -27.3102223041326 
! Gamma         0                0                0                0                
! Port Impedance         50               0                50               0                
14.58                          0.492332924064877 -27.6871400181381 0.86931652412142 62.2945934790537 0.86931652412142 62.2945934790537 0.492332924064877 -27.6871400181381 
! Gamma         0                0                0                0                
! Port Impedance         50               0                50               0                
14.6                           0.490614196693447 -28.064889447263 0.870284791716568 61.9161642231254 0.870284791716568 61.9161642231254 0.490614196693447 -28.064889447263 
! Gamma         0                0                0                0                
! Port Impedance         50               0                50               0                
14.62                          0.488870148725606 -28.4434798635287 0.871262760175732 61.5368871944262 0.871262760175732 61.5368871944262 0.488870148725606 -28.4434798635288 
! Gamma         0                0                0                0                
! Port Impedance         50               0                50               0                
14.64                          0.487100668921152 -28.8229204575874 0.872250307169144 61.156753038391  0.872250307169144 61.156753038391  0.487100668921152 -28.8229204575874 
! Gamma         0                0                0                0                
! Port Impedance         50               0                50               0                
14.66                          0.485305645961036 -29.2032203359057 0.873247307537671 60.7757524800354 0.873247307537671 60.7757524800354 0.485305645961036 -29.2032203359057 
! Gamma         0                0                0                0                
! Port Impedance         50               0                50               0                
14.68                          0.483484968513957 -29.5843885178823 0.87425363325257 60.3938763266635 0.87425363325257 60.3938763266635 0.483484968513957 -29.5843885178823 
! Gamma         0                0                0                0                
! Port Impedance         50               0                50               0                
14.7                           0.481638525304753 -29.9664339328948 0.875269153375489 60.0111154706382 0.875269153375489 60.0111154706382 0.481638525304754 -29.9664339328948 
! Gamma         0                0                0                0                
! Port Impedance         50               0                50               0                
14.72                          0.479766205184597 -30.3493654172773 0.876293734018756 59.6274608922113 0.876293734018756 59.6274608922113 0.479766205184598 -30.3493654172773 
! Gamma         0                0                0                0                
! Port Impedance         50               0                50               0                
14.74                          0.47786789720303 -30.7331917112279 0.877327238306004 59.2429036624172 0.877327238306004 59.2429036624172 0.477867897203031 -30.7331917112278 
! Gamma         0                0                0                0                
! Port Impedance         50               0                50               0                
14.76                          0.475943490681841 -31.1179214556447 0.878369526333193 58.8574349460271 0.878369526333193 58.8574349460271 0.475943490681841 -31.1179214556447 
! Gamma         0                0                0                0                
! Port Impedance         50               0                50               0                
14.78                          0.473992875290821 -31.5035631888914 0.879420455130063 58.4710460045653 0.879420455130064 58.4710460045653 0.473992875290821 -31.5035631888914 
! Gamma         0                0                0                0                
! Port Impedance         50               0                50               0                
14.8                           0.472015941125418 -31.8901253434889 0.880479878622092 58.0837281993881 0.880479878622092 58.0837281993881 0.472015941125418 -31.8901253434889 
! Gamma         0                0                0                0                
! Port Impedance         50               0                50               0                
14.82                          0.470012578786287 -32.2776162427357 0.881547647592991 57.6954729948242 0.881547647592991 57.6954729948241 0.470012578786287 -32.2776162427357 
! Gamma         0                0                0                0                
! Port Impedance         50               0                50               0                
14.84                          0.467982679460775 -32.6660440972548 0.882623609647828 57.3062719613766 0.882623609647829 57.3062719613766 0.467982679460776 -32.6660440972548 
! Gamma         0                0                0                0                
! Port Impedance         50               0                50               0                
14.86                          0.465926135006348 -33.0554170014665 0.883707609176803 56.9161167789875 0.883707609176803 56.9161167789875 0.465926135006348 -33.0554170014665 
! Gamma         0                0                0                0                
! Port Impedance         50               0                50               0                
14.88                          0.463842838035956 -33.4457429299877 0.884799487319752 56.5249992403625 0.884799487319752 56.5249992403625 0.463842838035956 -33.4457429299877 
! Gamma         0                0                0                0                
! Port Impedance         50               0                50               0                
14.9                           0.461732682005386 -33.8370297339559 0.885899081931459 56.1329112543588 0.885899081931459 56.1329112543587 0.461732682005386 -33.8370297339559 
! Gamma         0                0                0                0                
! Port Impedance         50               0                50               0                
14.92                          0.45959556130257 -34.229285137279 0.887006227547806 55.7398448494316 0.887006227547806 55.7398448494316 0.45959556130257 -34.229285137279 
! Gamma         0                0                0                0                
! Port Impedance         50               0                50               0                
14.94                          0.457431371338884 -34.622516732809 0.888120755352851 55.3457921771429 0.888120755352851 55.3457921771429 0.457431371338883 -34.622516732809 
! Gamma         0                0                0                0                
! Port Impedance         50               0                50               0                
14.96                          0.45524000864243 -35.0167319784411 0.889242493146908 54.9507455157285 0.889242493146908 54.9507455157285 0.45524000864243 -35.0167319784411 
! Gamma         0                0                0                0                
! Port Impedance         50               0                50               0                
14.98                          0.453021370953317 -35.4119381931354 0.890371265315664 54.554697273726  0.890371265315664 54.554697273726  0.453021370953317 -35.4119381931353 
! Gamma         0                0                0                0                
! Port Impedance         50               0                50               0                
15                             0.450775357320929 -35.8081425528633 0.891506892800454 54.1576399936599 0.891506892800454 54.1576399936599 0.450775357320929 -35.8081425528632 
! Gamma         0                0                0                0                
! Port Impedance         50               0                50               0                
15.02                          0.448501868203187 -36.2053520864772 0.892649193069719 53.7595663557851 0.89264919306972 53.7595663557851 0.448501868203187 -36.2053520864772 
! Gamma         0                0                0                0                
! Port Impedance         50               0                50               0                
15.04                          0.446200805567798 -36.6035736715029 0.893797980091758 53.3604691818876 0.893797980091759 53.3604691818876 0.446200805567797 -36.6035736715029 
! Gamma         0                0                0                0                
! Port Impedance         50               0                50               0                
15.06                          0.443872072995492 -37.0028140298553 0.894953064308829 52.9603414391407 0.894953064308829 52.9603414391407 0.443872072995492 -37.0028140298554 
! Gamma         0                0                0                0                
! Port Impedance         50               0                50               0                
15.08                          0.441515575785234 -37.4030797234767 0.896114252612684 52.5591762440164 0.896114252612684 52.5591762440164 0.441515575785234 -37.4030797234767 
! Gamma         0                0                0                0                
! Port Impedance         50               0                50               0                
15.1                           0.43913122106139 -37.8043771498972 0.897281348321627 52.15696686625   0.897281348321627 52.15696686625   0.43913122106139 -37.8043771498972 
! Gamma         0                0                0                0                
! Port Impedance         50               0                50               0                
15.12                          0.436718917882859 -38.2067125377179 0.898454151159153 51.7537067328584 0.898454151159153 51.7537067328584 0.436718917882858 -38.2067125377179 
! Gamma         0                0                0                0                
! Port Impedance         50               0                50               0                
15.14                          0.434278577354114 -38.6100919420162 0.899632457234271 51.3493894322073 0.899632457234271 51.3493894322073 0.434278577354115 -38.6100919420162 
! Gamma         0                0                0                0                
! Port Impedance         50               0                50               0                
15.16                          0.431810112738186 -39.0145212396716 0.900816059023594 50.9440087181305 0.900816059023594 50.9440087181305 0.431810112738186 -39.0145212396716 
! Gamma         0                0                0                0                
! Port Impedance         50               0                50               0                
15.18                          0.429313439571504 -39.4200061246151 0.902004745355265 50.5375585140953 0.902004745355265 50.5375585140953 0.429313439571504 -39.4200061246151 
! Gamma         0                0                0                0                
! Port Impedance         50               0                50               0                
15.2                           0.42678847578062 -39.8265521029982 0.903198301394818 50.1300329174151 0.903198301394819 50.1300329174151 0.42678847578062 -39.8265521029982 
! Gamma         0                0                0                0                
! Port Impedance         50               0                50               0                
15.22                          0.42423514180075 -40.2341644882841 0.90439650863307 49.7214262035059 0.904396508633069 49.7214262035059 0.42423514180075 -40.2341644882841 
! Gamma         0                0                0                0                
! Port Impedance         50               0                50               0                
15.24                          0.421653360696122 -40.6428483962587 0.905599144876103 49.3117328301854 0.905599144876103 49.3117328301854 0.421653360696122 -40.6428483962587 
! Gamma         0                0                0                0                
! Port Impedance         50               0                50               0                
15.26                          0.419043058282075 -41.0526087399627 0.906805984237463 48.9009474420131 0.906805984237463 48.9009474420131 0.419043058282075 -41.0526087399627 
! Gamma         0                0                0                0                
! Port Impedance         50               0                50               0                
15.28                          0.416404163248878 -41.4634502245435 0.908016797132641 48.489064874667  0.908016797132642 48.489064874667  0.416404163248878 -41.4634502245435 
! Gamma         0                0                0                0                
! Port Impedance         50               0                50               0                
15.3                           0.413736607287218 -41.8753773420261 0.909231350275928 48.0760801593579 0.909231350275929 48.0760801593579 0.413736607287217 -41.8753773420262 
! Gamma         0                0                0                0                
! Port Impedance         50               0                50               0                
15.32                          0.411040325215308 -42.2883943660037 0.910449406679753 47.6619885272758 0.910449406679753 47.6619885272758 0.411040325215308 -42.2883943660037 
! Gamma         0                0                0                0                
! Port Impedance         50               0                50               0                
15.34                          0.408315255107568 -42.7025053462452 0.911670725656579 47.2467854140674 0.911670725656579 47.2467854140674 0.408315255107568 -42.7025053462452 
! Gamma         0                0                0                0                
! Port Impedance         50               0                50               0                
15.36                          0.4055613384248  -43.1177141032215 0.912895062823461 46.8304664643417 0.912895062823461 46.8304664643417 0.4055613384248  -43.1177141032215 
! Gamma         0                0                0                0                
! Port Impedance         50               0                50               0                
15.38                          0.402778520145824 -43.5340242225474 0.914122170109351 46.4130275362001 0.91412217010935 46.4130275362001 0.402778520145824 -43.5340242225474 
! Gamma         0                0                0                0                
! Port Impedance         50               0                50               0                
15.4                           0.399966748900476 -43.951439049338 0.915351795765247 45.9944647057895 0.915351795765247 45.9944647057895 0.399966748900476 -43.9514390493381 
! Gamma         0                0                0                0                
! Port Impedance         50               0                50               0                
15.42                          0.397125977103923 -44.369961682481 0.916583684377289 45.5747742718735 0.916583684377289 45.5747742718735 0.397125977103923 -44.369961682481 
! Gamma         0                0                0                0                
! Port Impedance         50               0                50               0                
15.44                          0.394256161092198 -44.7895949688186 0.917817576882862 45.1539527604192 0.917817576882862 45.1539527604192 0.394256161092198 -44.7895949688186 
! Gamma         0                0                0                0                
! Port Impedance         50               0                50               0                
15.46                          0.391357261258878 -45.2103414972427 0.919053210589853 44.7319969291964 0.919053210589854 44.7319969291965 0.391357261258877 -45.2103414972427 
! Gamma         0                0                0                0                
! Port Impedance         50               0                50               0                
15.48                          0.388429242192835 -45.6322035926955 0.920290319199094 44.3089037723857 0.920290319199094 44.3089037723857 0.388429242192835 -45.6322035926954 
! Gamma         0                0                0                0                
! Port Impedance         50               0                50               0                
15.5                           0.385472072816937 -46.055183310078 0.921528632830127 43.8846705251902 0.921528632830127 43.8846705251901 0.385472072816937 -46.055183310078 
! Gamma         0                0                0                0                
! Port Impedance         50               0                50               0                
15.52                          0.382485726527627 -46.4792824280612 0.922767878050359 43.4592946684487 0.922767878050359 43.4592946684487 0.382485726527627 -46.4792824280612 
! Gamma         0                0                0                0                
! Port Impedance         50               0                50               0                
15.54                          0.379470181335275 -46.9045024427947 0.924007777907709 43.0327739332466 0.924007777907708 43.0327739332466 0.379470181335275 -46.9045024427947 
! Gamma         0                0                0                0                
! Port Impedance         50               0                50               0                
15.56                          0.376425420005179 -47.3308445615139 0.925248051966813 42.6051063055178 0.925248051966813 42.6051063055178 0.376425420005179 -47.3308445615139 
! Gamma         0                0                0                0                
! Port Impedance         50               0                50               0                
15.58                          0.373351430199126 -47.7583096960364 0.926488416348908 42.1762900306361 0.926488416348908 42.1762900306361 0.373351430199126 -47.7583096960364 
! Gamma         0                0                0                0                
! Port Impedance         50               0                50               0                
15.6                           0.370248204617375 -48.1868984561448 0.92772858377544 41.7463236179899 0.92772858377544 41.7463236179899 0.370248204617375 -48.1868984561447 
! Gamma         0                0                0                0                
! Port Impedance         50               0                50               0                
15.62                          0.367115741140951 -48.6166111428508 0.928968263615509 41.3152058455361 0.92896826361551 41.3152058455361 0.367115741140951 -48.6166111428509 
! Gamma         0                0                0                0                
! Port Impedance         50               0                50               0                
15.64                          0.363954042974124 -49.047447741532 0.930207161937218 40.8829357643294 0.930207161937218 40.8829357643294 0.363954042974125 -49.047447741532 
! Gamma         0                0                0                0                
! Port Impedance         50               0                50               0                
15.66                          0.360763118786924 -49.4794079149345 0.931444981562996 40.4495127030193 0.931444981562996 40.4495127030193 0.360763118786924 -49.4794079149345 
! Gamma         0                0                0                0                
! Port Impedance         50               0                50               0                
15.68                          0.357542982857568 -49.9124909960342 0.932681422128992 40.0149362723135 0.932681422128992 40.0149362723135 0.357542982857568 -49.9124909960342 
! Gamma         0                0                0                0                
! Port Impedance         50               0                50               0                
15.7                           0.354293655214654 -50.3466959807448 0.933916180148585 39.5792063693995 0.933916180148585 39.5792063693995 0.354293655214654 -50.3466959807448 
! Gamma         0                0                0                0                
! Port Impedance         50               0                50               0                
15.72                          0.351015161778961 -50.782021520462 0.935148949080096 39.1423231823203 0.935148949080096 39.1423231823203 0.351015161778961 -50.782021520462 
! Gamma         0                0                0                0                
! Port Impedance         50               0                50               0                
15.74                          0.347707534504716 -51.2184659144327 0.936379419398762 38.7042871942996 0.936379419398762 38.7042871942995 0.347707534504716 -51.2184659144327 
! Gamma         0                0                0                0                
! Port Impedance         50               0                50               0                
15.76                          0.344370811520154 -51.6560271019329 0.937607278673028 38.2650991880084 0.937607278673029 38.2650991880084 0.344370811520154 -51.6560271019329 
! Gamma         0                0                0                0                
! Port Impedance         50               0                50               0                
15.78                          0.341005037267223 -52.0947026542391 0.938832211645222 37.8247602497711 0.938832211645222 37.8247602497711 0.341005037267223 -52.0947026542392 
! Gamma         0                0                0                0                
! Port Impedance         50               0                50               0                
15.8                           0.337610262640244 -52.5344897663753 0.940053900316655 37.3832717737006 0.940053900316654 37.3832717737006 0.337610262640244 -52.5344897663753 
! Gamma         0                0                0                0                
! Port Impedance         50               0                50               0                
15.82                          0.334186545123371 -52.9753852486133 0.941272024037195 36.9406354657613 0.941272024037196 36.9406354657612 0.334186545123371 -52.9753852486133 
! Gamma         0                0                0                0                
! Port Impedance         50               0                50               0                
15.84                          0.330733948926663 -53.4173855177055 0.942486259599379 36.49685334775   0.942486259599379 36.49685334775   0.330733948926664 -53.4173855177055 
! Gamma         0                0                0                0                
! Port Impedance         50               0                50               0                
15.86                          0.327252545120586 -53.8604865878209 0.943696281337051 36.0519277611919 0.943696281337051 36.0519277611919 0.327252545120586 -53.8604865878208 
! Gamma         0                0                0                0                
! Port Impedance         50               0                50               0                
15.88                          0.323742411768753 -54.3046840611565 0.944901761228618 35.6058613711421 0.944901761228618 35.6058613711421 0.323742411768753 -54.3046840611565 
! Gamma         0                0                0                0                
! Port Impedance         50               0                50               0                
15.9                           0.320203634058722 -54.7499731181904 0.946102369004894 35.1586571698894 0.946102369004893 35.1586571698894 0.320203634058722 -54.7499731181904 
! Gamma         0                0                0                0                
! Port Impedance         50               0                50               0                
15.92                          0.316636304430651 -55.1963485075359 0.947297772261593 34.7103184805547 0.947297772261593 34.7103184805547 0.31663630443065 -55.1963485075359 
! Gamma         0                0                0                0                
! Port Impedance         50               0                50               0                
15.94                          0.313040522703594 -55.6438045353583 0.948487636576458 34.2608489605759 0.948487636576459 34.2608489605759 0.313040522703594 -55.6438045353583 
! Gamma         0                0                0                0                
! Port Impedance         50               0                50               0                
15.96                          0.309416396199274 -56.0923350543012 0.949671625631043 33.8102526050773 0.949671625631043 33.8102526050773 0.309416396199274 -56.0923350543011 
! Gamma         0                0                0                0                
! Port Impedance         50               0                50               0                
15.98                          0.30576403986308 -56.5419334518702 0.950849401337141 33.3585337501112 0.950849401337141 33.3585337501112 0.305764039863079 -56.5419334518702 
! Gamma         0                0                0                0                
! Port Impedance         50               0                50               0                
16                             0.302083576382121 -56.9925926382123 0.952020623967861 32.90569707577   0.952020623967861 32.90569707577   0.302083576382121 -56.9925926382123 
! Gamma         0                0                0                0                
! Port Impedance         50               0                50               0                
16.02                          0.298375136300103 -57.4443050332174 0.953184952293319 32.4517476091597 0.953184952293319 32.4517476091597 0.298375136300103 -57.4443050332174 
! Gamma         0                0                0                0                
! Port Impedance         50               0                50               0                
16.04                          0.29463885812881 -57.8970625528679 0.954342043720943 31.9966907272276 0.954342043720943 31.9966907272276 0.29463885812881 -57.8970625528679 
! Gamma         0                0                0                0                
! Port Impedance         50               0                50               0                
16.06                          0.290874888456002 -58.3508565947415 0.955491554440333 31.5405321594401 0.955491554440333 31.54053215944   0.290874888456002 -58.3508565947414 
! Gamma         0                0                0                0                
! Port Impedance         50               0                50               0                
16.08                          0.28708338204948 -58.8056780225675 0.956633139572665 31.0832779903014 0.956633139572665 31.0832779903014 0.28708338204948 -58.8056780225675 
! Gamma         0                0                0                0                
! Port Impedance         50               0                50               0                
16.1                           0.283264501957127 -59.2615171497213 0.957766453324564 30.6249346617084 0.957766453324564 30.6249346617084 0.283264501957127 -59.2615171497212 
! Gamma         0                0                0                0                
! Port Impedance         50               0                50               0                
16.12                          0.279418419602683 -59.7183637215246 0.958891149146409 30.1655089751326 0.958891149146409 30.1655089751326 0.279418419602683 -59.7183637215247 
! Gamma         0                0                0                0                
! Port Impedance         50               0                50               0                
16.14                          0.275545314877056 -60.1762068962018 0.96000687989499 29.7050080936256 0.96000687989499 29.7050080936256 0.275545314877056 -60.1762068962018 
! Gamma         0                0                0                0                
! Port Impedance         50               0                50               0                
16.16                          0.271645376224941 -60.6350352243215 0.961113298000447 29.2434395436398 0.961113298000447 29.2434395436398 0.271645376224941 -60.6350352243215 
! Gamma         0                0                0                0                
! Port Impedance         50               0                50               0                
16.18                          0.267718800726522 -61.0948366265307 0.962210055637412 28.7808112166576 0.962210055637412 28.7808112166576 0.267718800726522 -61.0948366265306 
! Gamma         0                0                0                0                
! Port Impedance         50               0                50               0                
16.2                           0.263765794174056 -61.5555983693576 0.963296804900247 28.317131370624  0.963296804900248 28.317131370624  0.263765794174056 -61.5555983693577 
! Gamma         0                0                0                0                
! Port Impedance         50               0                50               0                
16.22                          0.259786571143106 -62.0173070388299 0.96437319798229 27.8524086311747 0.964373197982289 27.8524086311747 0.259786571143106 -62.0173070388299 
! Gamma         0                0                0                0                
! Port Impedance         50               0                50               0                
16.24                          0.255781355058232 -62.4799485116157 0.965438887358974 27.3866519926555 0.965438887358974 27.3866519926555 0.255781355058232 -62.4799485116157 
! Gamma         0                0                0                0                
! Port Impedance         50               0                50               0                
16.26                          0.251750378252901 -62.9435079233546 0.966493525974732 26.9198708189247 0.966493525974732 26.9198708189247 0.251750378252901 -62.9435079233546 
! Gamma         0                0                0                0                
! Port Impedance         50               0                50               0                
16.28                          0.247693882023441 -63.4079696337921 0.967536767433513 26.4520748439346 0.967536767433513 26.4520748439346 0.247693882023441 -63.4079696337921 
! Gamma         0                0                0                0                
! Port Impedance         50               0                50               0                
16.3                           0.24361211667681 -63.873317188274 0.968568266192796 25.9832741720854 0.968568266192796 25.9832741720854 0.24361211667681 -63.8733171882739 
! Gamma         0                0                0                0                
! Port Impedance         50               0                50               0                
16.32                          0.239505341571999 -64.3395332750867 0.969587677760942 25.5134792783448 0.969587677760941 25.5134792783448 0.239505341571999 -64.3395332750866 
! Gamma         0                0                0                0                
! Port Impedance         50               0                50               0                
16.34                          0.235373825154861 -64.8065996780507 0.970594658897718 25.0427010081308 0.970594658897718 25.0427010081308 0.235373825154861 -64.8065996780507 
! Gamma         0                0                0                0                
! Port Impedance         50               0                50               0                
16.36                          0.231217844986201 -65.274497223675 0.971588867817829 24.5709505769492 0.97158886781783 24.5709505769492 0.231217844986202 -65.274497223675 
! Gamma         0                0                0                0                
! Port Impedance         50               0                50               0                
16.38                          0.227037687762916 -65.7432057220693 0.972569964397265 24.0982395697831 0.972569964397265 24.0982395697831 0.227037687762916 -65.7432057220693 
! Gamma         0                0                0                0                
! Port Impedance         50               0                50               0                
16.4                           0.222833649332041 -66.2127039006772 0.973537610382284 23.624579940229  0.973537610382284 23.624579940229  0.222833649332041 -66.2127039006771 
! Gamma         0                0                0                0                
! Port Impedance         50               0                50               0                
16.42                          0.218606034697515 -66.6829693297297 0.974491469600829 23.1499840093736 0.974491469600829 23.1499840093736 0.218606034697515 -66.6829693297297 
! Gamma         0                0                0                0                
! Port Impedance         50               0                50               0                
16.44                          0.21435515801953 -67.1539783381313 0.97543120817616 22.6744644644103 0.97543120817616 22.6744644644103 0.21435515801953 -67.1539783381313 
! Gamma         0                0                0                0                
! Port Impedance         50               0                50               0                
16.46                          0.210081342606289 -67.625705918259 0.976356494742492 22.1980343569873 0.976356494742491 22.1980343569873 0.210081342606289 -67.625705918259 
! Gamma         0                0                0                0                
! Port Impedance         50               0                50               0                
16.48                          0.205784920898065 -68.0981256178793 0.977267000662408 21.7207071012869 0.977267000662408 21.7207071012869 0.205784920898065 -68.0981256178793 
! Gamma         0                0                0                0                
! Port Impedance         50               0                50               0                
16.5                           0.201466234443423 -68.571209417055 0.978162400245816 21.2424964718316 0.978162400245816 21.2424964718315 0.201466234443423 -68.5712094170551 
! Gamma         0                0                0                0                
! Port Impedance         50               0                50               0                
16.52                          0.197125633867486 -69.0449275875076 0.979042370970192 20.7634166010124 0.979042370970192 20.7634166010124 0.197125633867486 -69.0449275875077 
! Gamma         0                0                0                0                
! Port Impedance         50               0                50               0                
16.54                          0.192763478832172 -69.5192485314109 0.979906593701871 20.2834819763401 0.979906593701871 20.2834819763401 0.192763478832172 -69.5192485314108 
! Gamma         0                0                0                0                
! Port Impedance         50               0                50               0                
16.56                          0.188380137988275 -69.9941385959852 0.980754752918127 19.802707437412  0.980754752918127 19.802707437412  0.188380137988275 -69.9941385959852 
! Gamma         0                0                0                0                
! Port Impedance         50               0                50               0                
16.58                          0.183975988919385 -70.4695618595208 0.981586536929756 19.3211081725989 0.981586536929756 19.3211081725989 0.183975988919385 -70.469561859521 
! Gamma         0                0                0                0                
! Port Impedance         50               0                50               0                
16.6                           0.179551418077534 -70.9454798835435 0.982401638103913 18.8386997154432 0.982401638103913 18.8386997154432 0.179551418077534 -70.9454798835435 
! Gamma         0                0                0                0                
! Port Impedance         50               0                50               0                
16.62                          0.175106820710586 -71.4218514246958 0.983199753086906 18.355497940773  0.983199753086906 18.355497940773  0.175106820710586 -71.4218514246958 
! Gamma         0                0                0                0                
! Port Impedance         50               0                50               0                
16.64                          0.170642600781344 -71.8986320984857 0.983980583026665 17.8715190605283 0.983980583026665 17.8715190605283 0.170642600781344 -71.8986320984856 
! Gamma         0                0                0                0                
! Port Impedance         50               0                50               0                
16.66                          0.166159170878405 -72.3757739852704 0.984743833794597 17.3867796192987 0.984743833794598 17.3867796192987 0.166159170878405 -72.3757739852704 
! Gamma         0                0                0                0                
! Port Impedance         50               0                50               0                
16.68                          0.1616569521188  -72.8532251665884 0.985489216206533 16.9012964895747 0.985489216206533 16.9012964895747 0.1616569521188  -72.8532251665884 
! Gamma         0                0                0                0                
! Port Impedance         50               0                50               0                
16.7                           0.157136374042518 -73.3309291770854 0.986216446242452 16.4150868667104 0.986216446242452 16.4150868667104 0.157136374042518 -73.3309291770853 
! Gamma         0                0                0                0                
! Port Impedance         50               0                50               0                
16.72                          0.152597874499031 -73.8088243536144 0.986925245264703 15.9281682636005 0.986925245264703 15.9281682636005 0.152597874499032 -73.8088243536144 
! Gamma         0                0                0                0                
! Port Impedance         50               0                50               0                
16.74                          0.148041899525981 -74.2868430583604 0.987615340234393 15.4405585050723 0.987615340234393 15.4405585050723 0.148041899525982 -74.2868430583603 
! Gamma         0                0                0                0                
! Port Impedance         50               0                50               0                
16.76                          0.14346890322028 -74.7649107467123 0.988286463925649 14.952275721993  0.988286463925649 14.952275721993  0.14346890322028 -74.7649107467122 
! Gamma         0                0                0                0                
! Port Impedance         50               0                50               0                
16.78                          0.138879347601901 -75.2429448425698 0.988938355137426 14.463338345097  0.988938355137426 14.463338345097  0.138879347601902 -75.2429448425696 
! Gamma         0                0                0                0                
! Port Impedance         50               0                50               0                
16.8                           0.134273702470773 -75.7208533731915 0.98957075890257 13.9737650985345 0.98957075890257 13.9737650985345 0.134273702470773 -75.7208533731915 
! Gamma         0                0                0                0                
! Port Impedance         50               0                50               0                
16.82                          0.12965244525726 -76.1985333015906 0.990183426693807 13.4835749931436 0.990183426693807 13.4835749931436 0.129652445257259 -76.1985333015906 
! Gamma         0                0                0                0                
! Port Impedance         50               0                50               0                
16.84                          0.125016060866884 -76.675868475549 0.990776116626347 12.9927873194513 0.990776116626347 12.9927873194513 0.125016060866884 -76.675868475549 
! Gamma         0                0                0                0                
! Port Impedance         50               0                50               0                
16.86                          0.120365041520157 -77.1527270866121 0.991348593656802 12.5014216404064 0.991348593656802 12.5014216404064 0.120365041520157 -77.1527270866119 
! Gamma         0                0                0                0                
! Port Impedance         50               0                50               0                
16.88                          0.115699886588594 -77.628958497158 0.991900629778094 12.0094977838494 0.991900629778093 12.0094977838494 0.115699886588594 -77.6289584971581 
! Gamma         0                0                0                0                
! Port Impedance         50               0                50               0                
16.9                           0.111021102428408 -78.1043892446687 0.992432004210063 11.5170358347227 0.992432004210063 11.5170358347227 0.111021102428408 -78.1043892446685 
! Gamma         0                0                0                0                
! Port Impedance         50               0                50               0                
16.92                          0.106329202213818 -78.5788179635097 0.992942503585458 11.0240561270294 0.992942503585458 11.0240561270294 0.106329202213818 -78.5788179635095 
! Gamma         0                0                0                0                
! Port Impedance         50               0                50               0                
16.94                          0.101624705772657 -79.0520088664603 0.993431922131016 10.5305792355438 0.993431922131016 10.5305792355438 0.101624705772657 -79.0520088664604 
! Gamma         0                0                0                0                
! Port Impedance         50               0                50               0                
16.96                          0.0969081394279209 -79.5236832864618 0.99390006184334 10.036625967282  0.99390006184334 10.036625967282  0.096908139427921 -79.5236832864618 
! Gamma         0                0                0                0                
! Port Impedance         50               0                50               0                
16.98                          0.0921800358504032 -79.9935085707586 0.994346732659275 9.54221735273722 0.994346732659275 9.54221735273722 0.0921800358504031 -79.9935085707585 
! Gamma         0                0                0                0                
! Port Impedance         50               0                50               0                
17                             0.0874409339297307 -80.4610833082567 0.994771752620516 9.0473746368898  0.994771752620516 9.0473746368898  0.0874409339297305 -80.461083308257 
! Gamma         0                0                0                0                
! Port Impedance         50               0                50               0                
17.02                          0.0826913786744291 -80.9259173965192 0.995174948032157 8.55211926999691 0.995174948032157 8.55211926999691 0.0826913786744292 -80.9259173965192 
! Gamma         0                0                0                0                
! Port Impedance         50               0                50               0                
17.04                          0.0779319211568245 -81.3874047166599 0.995556153614929 8.05647289817133 0.995556153614929 8.05647289817133 0.0779319211568245 -81.38740471666  
! Gamma         0                0                0                0                
! Port Impedance         50               0                50               0                
17.06                          0.073163118526784 -81.8447850088114 0.995915212650849 7.56045735375774 0.995915212650849 7.56045735375774 0.0731631185267839 -81.8447850088111 
! Gamma         0                0                0                0                
! Port Impedance         50               0                50               0                
17.08                          0.0683855341317076 -82.2970896195132 0.996251977122054 7.0640946455149  0.996251977122054 7.0640946455149  0.0683855341317076 -82.2970896195132 
! Gamma         0                0                0                0                
! Port Impedance         50               0                50               0                
17.1                           0.0635997378027359 -82.7430625598899 0.996566307842559 6.56740694861386 0.996566307842558 6.56740694861386 0.0635997378027359 -82.7430625598897 
! Gamma         0                0                0                0                
! Port Impedance         50               0                50               0                
17.12                          0.0588063064062969 -83.1810426941005 0.996858074582726 6.07041659445942 0.996858074582726 6.07041659445942 0.058806306406297 -83.1810426941007 
! Gamma         0                0                0                0                
! Port Impedance         50               0                50               0                
17.14                          0.0540058248308727 -83.6087827380815 0.99712715618622 5.57314606034834 0.99712715618622 5.57314606034835 0.0540058248308727 -83.6087827380813 
! Gamma         0                0                0                0                
! Port Impedance         50               0                50               0                
17.16                          0.0491988877119466 -84.02316165316  0.997373440679246 5.07561795897141 0.997373440679246 5.07561795897141 0.0491988877119466 -84.0231616531599 
! Gamma         0                0                0                0                
! Port Impedance         50               0                50               0                
17.18                          0.0443861024617013 -84.4197092224995 0.997596825371872 4.57785502777187 0.997596825371872 4.57785502777187 0.0443861024617013 -84.4197092224999 
! Gamma         0                0                0                0                
! Port Impedance         50               0                50               0                
17.2                           0.0395680947232182 -84.7917822691   0.997797216951273 4.07988011816937 0.997797216951273 4.07988011816937 0.0395680947232182 -84.7917822690995 
! Gamma         0                0                0                0                
! Port Impedance         50               0                50               0                
17.22                          0.0347455186147525 -85.1290533608234 0.997974531566707 3.58171618466222 0.997974531566706 3.58171618466222 0.0347455186147525 -85.129053360823 
! Gamma         0                0                0                0                
! Port Impedance         50               0                50               0                
17.24                          0.029919077186798 -85.4145346242102 0.998128694906087 3.08338627381868 0.998128694906087 3.08338627381868 0.029919077186798 -85.4145346242095 
! Gamma         0                0                0                0                
! Port Impedance         50               0                50               0                
17.26                          0.0250895668726478 -85.6181616074198 0.998259642264011 2.58491351316861 0.998259642264011 2.58491351316861 0.0250895668726478 -85.6181616074198 
! Gamma         0                0                0                0                
! Port Impedance         50               0                50               0                
17.28                          0.0202579860163452 -85.6811947699588 0.998367318601122 2.08632110000655 0.998367318601122 2.08632110000655 0.0202579860163453 -85.6811947699588 
! Gamma         0                0                0                0                
! Port Impedance         50               0                50               0                
17.3                           0.0154258479962774 -85.4713228751418 0.998451678594686 1.58763229012071 0.998451678594686 1.58763229012071 0.0154258479962773 -85.4713228751422 
! Gamma         0                0                0                0                
! Port Impedance         50               0                50               0                
17.32                          0.0105963515231755 -84.6151889703851 0.99851268668031 1.0888703864568  0.99851268668031 1.0888703864568  0.0105963515231756 -84.6151889703838 
! Gamma         0                0                0                0                
! Port Impedance         50               0                50               0                
17.34                          0.00578140965393194 -81.4964922159964 0.998550317084721 0.590058727731747 0.998550317084722 0.590058727731747 0.00578140965393193 -81.4964922159977 
! Gamma         0                0                0                0                
! Port Impedance         50               0                50               0                
17.36                          0.00119206051813947 -47.8779878662288 0.998564553849533 0.091220677007131 0.998564553849533 0.091220677007131 0.0011920605181393 -47.8779878662378 
! Gamma         0                0                0                0                
! Port Impedance         50               0                50               0                
17.38                          0.00403568403550011 78.1557690074922 0.998555390845973 -0.407620389762433 0.998555390845973 -0.407620389762433 0.00403568403550011 78.1557690074922 
! Gamma         0                0                0                0                
! Port Impedance         50               0                50               0                
17.4                           0.00883255701261699 83.8823555118595 0.998522831780536 -0.906441095196618 0.998522831780535 -0.906441095196618 0.00883255701261696 83.882355511862  
! Gamma         0                0                0                0                
! Port Impedance         50               0                50               0                
17.42                          0.0136591408908544 85.2194595469355 0.998466890191556 -1.40521807195684 0.998466890191556 -1.40521807195684 0.0136591408908544 85.2194595469366 
! Gamma         0                0                0                0                
! Port Impedance         50               0                50               0                
17.44                          0.0184907317880176 85.5974758726624 0.998387589436704 -1.90392797420354 0.998387589436704 -1.90392797420354 0.0184907317880175 85.5974758726636 
! Gamma         0                0                0                0                
! Port Impedance         50               0                50               0                
17.46                          0.023322574566582 85.6122201851105 0.998284962671424 -2.40254748903   0.998284962671423 -2.40254748903   0.023322574566582 85.6122201851102 
! Gamma         0                0                0                0                
! Port Impedance         50               0                50               0                
17.48                          0.0281527727386498 85.4508164460935 0.998159052818361 -2.90105334785981 0.998159052818361 -2.90105334785981 0.0281527727386498 85.450816446093  
! Gamma         0                0                0                0                
! Port Impedance         50               0                50               0                
17.5                           0.0329801965337544 85.1907733623554 0.998009912527836 -3.39942233779664 0.998009912527836 -3.39942233779664 0.0329801965337544 85.1907733623552 
! Gamma         0                0                0                0                
! Port Impedance         50               0                50               0                
17.52                          0.0378039943012746 84.8699928173638 0.997837604129418 -3.89763131291252 0.997837604129418 -3.89763131291252 0.0378039943012747 84.8699928173636 
! Gamma         0                0                0                0                
! Port Impedance         50               0                50               0                
17.54                          0.0426234362490726 84.5092060975876 0.99764219957471 -4.39565720546435 0.99764219957471 -4.39565720546435 0.0426234362490726 84.5092060975878 
! Gamma         0                0                0                0                
! Port Impedance         50               0                50               0                
17.56                          0.0474378537924835 84.1207120063372 0.997423780371437 -4.8934770370251 0.997423780371437 -4.8934770370251 0.0474378537924836 84.1207120063365 
! Gamma         0                0                0                0                
! Port Impedance         50               0                50               0                
17.58                          0.0522466126878267 83.7122720780738 0.997182437508949 -5.39106792951867 0.997182437508948 -5.39106792951867 0.0522466126878267 83.7122720780736 
! Gamma         0                0                0                0                
! Port Impedance         50               0                50               0                
17.6                           0.0570490999477385 83.2890293207805 0.99691827137529 -5.88840711614635 0.99691827137529 -5.88840711614635 0.0570490999477386 83.2890293207805 
! Gamma         0                0                0                0                
! Port Impedance         50               0                50               0                
17.62                          0.0618447170129006 82.8545292211333 0.996631391665968 -6.38547195219371 0.996631391665968 -6.38547195219371 0.0618447170129007 82.8545292211329 
! Gamma         0                0                0                0                
! Port Impedance         50               0                50               0                
17.64                          0.0666328760095605 82.4112975765987 0.996321917284591 -6.8822399257073 0.996321917284591 -6.8822399257073 0.0666328760095605 82.4112975765988 
! Gamma         0                0                0                0                
! Port Impedance         50               0                50               0                
17.66                          0.0714129976331953 81.9611844259281 0.995989976235553 -7.37868866802789 0.995989976235553 -7.37868866802789 0.0714129976331953 81.9611844259281 
! Gamma         0                0                0                0                
! Port Impedance         50               0                50               0                
17.68                          0.076184509936563 81.5055775529534 0.995635705508942 -7.87479596417411 0.995635705508942 -7.87479596417411 0.076184509936563 81.5055775529534 
! Gamma         0                0                0                0                
! Port Impedance         50               0                50               0                
17.7                           0.0809468476434037 81.0455398345958 0.995259250957902 -8.37053976306056 0.995259250957902 -8.37053976306056 0.0809468476434037 81.0455398345958 
! Gamma         0                0                0                0                
! Port Impedance         50               0                50               0                
17.72                          0.0856994517790062 80.5819003444716 0.99486076716863 -8.86589818754521 0.994860767168629 -8.86589818754521 0.0856994517790061 80.5819003444715 
! Gamma         0                0                0                0                
! Port Impedance         50               0                50               0                
17.74                          0.0904417694974238 80.1153164106827 0.994440417323252 -9.36084954429379 0.994440417323252 -9.36084954429379 0.0904417694974239 80.1153164106827 
! Gamma         0                0                0                0                
! Port Impedance         50               0                50               0                
17.76                          0.0951732540335624 79.6463168853463 0.993998373055823 -9.85537233345262 0.993998373055823 -9.85537233345262 0.0951732540335624 79.6463168853465 
! Gamma         0                0                0                0                
! Port Impedance         50               0                50               0                
17.78                          0.0998933647358345 79.1753329423992 0.993534814301671 -10.349445258121 0.993534814301671 -10.349445258121 0.0998933647358346 79.1753329423992 
! Gamma         0                0                0                0                
! Port Impedance         50               0                50               0                
17.8                           0.104601567151228 78.702720404541  0.993049929140374 -10.8430472336138 0.993049929140374 -10.8430472336138 0.104601567151228 78.7027204045409 
! Gamma         0                0                0                0                
! Port Impedance         50               0                50               0                
17.82                          0.109297333144454 78.2287761977022 0.992543913632598 -11.3361573965081 0.992543913632598 -11.3361573965081 0.109297333144454 78.2287761977023 
! Gamma         0                0                0                0                
! Port Impedance         50               0                50               0                
17.84                          0.11398014103888 77.7537506587998 0.992016971651117 -11.8287551134639 0.992016971651117 -11.8287551134639 0.11398014103888 77.7537506587997 
! Gamma         0                0                0                0                
! Port Impedance         50               0                50               0                
17.86                          0.118649475770913 77.2778568663212 0.991469314706242 -12.3208199898126 0.991469314706242 -12.3208199898126 0.118649475770913 77.2778568663211 
! Gamma         0                0                0                0                
! Port Impedance         50               0                50               0                
17.88                          0.123304829051976 76.8012778009282 0.990901161765988 -12.8123318779066 0.990901161765987 -12.8123318779066 0.123304829051976 76.8012778009282 
! Gamma         0                0                0                0                
! Port Impedance         50               0                50               0                
17.9                           0.12794569953398 76.3241719025035 0.990312739071256 -13.3032708852235 0.990312739071256 -13.3032708852235 0.127945699533979 76.3241719025036 
! Gamma         0                0                0                0                
! Port Impedance         50               0                50               0                
17.92                          0.132571592975255 75.8466774271908 0.989704279946324 -13.7936173822177 0.989704279946324 -13.7936173822177 0.132571592975255 75.8466774271907 
! Gamma         0                0                0                0                
! Port Impedance         50               0                50               0                
17.94                          0.137182022404816 75.3689158959589 0.989076024604955 -14.2833520099164 0.989076024604955 -14.2833520099164 0.137182022404816 75.3689158959591 
! Gamma         0                0                0                0                
! Port Impedance         50               0                50               0                
17.96                          0.141776508283286 74.8909948480145 0.988428219952432 -14.7724556872518 0.988428219952432 -14.7724556872518 0.141776508283286 74.8909948480146 
! Gamma         0                0                0                0                
! Port Impedance         50               0                50               0                
17.98                          0.146354578659277 74.4130100570113 0.987761119383817 -15.2609096181278 0.987761119383818 -15.2609096181278 0.146354578659277 74.4130100570113 
! Gamma         0                0                0                0                
! Port Impedance         50               0                50               0                
18                             0.150915769320292 73.9350473283026 0.987074982578761 -15.7486952982148 0.987074982578761 -15.7486952982148 0.150915769320292 73.9350473283026 
! Gamma         0                0                0                0                
! Port Impedance         50               0                50               0                
18.02                          0.155459623937446 73.4571839666522 0.986370075293156 -16.2357945214708 0.986370075293156 -16.2357945214708 0.155459623937446 73.4571839666522 
! Gamma         0                0                0                0                
! Port Impedance         50               0                50               0                
18.04                          0.159985694203416 72.9794899826753 0.985646669147965 -16.7221893863828 0.985646669147965 -16.7221893863828 0.159985694203416 72.9794899826752 
! Gamma         0                0                0                0                
! Port Impedance         50               0                50               0                
18.06                          0.164493539963245 72.5020290905914 0.984905041415525 -17.2078623019302 0.984905041415524 -17.2078623019302 0.164493539963245 72.5020290905914 
! Gamma         0                0                0                0                
! Port Impedance         50               0                50               0                
18.08                          0.168982729337634 72.0248595381296 0.98414547480364 -17.6927959932626 0.98414547480364 -17.6927959932626 0.168982729337634 72.0248595381295 
! Gamma         0                0                0                0                
! Port Impedance         50               0                50               0                
18.1                           0.173452838838484 71.5480348005524 0.98336825723778 -18.1769735070949 0.98336825723778 -18.1769735070949 0.173452838838484 71.5480348005525 
! Gamma         0                0                0                0                
! Port Impedance         50               0                50               0                
18.12                          0.177903453476492 71.0716041640047 0.982573681641682 -18.6603782168143 0.982573681641682 -18.6603782168143 0.177903453476492 71.0716041640048 
! Gamma         0                0                0                0                
! Port Impedance         50               0                50               0                
18.14                          0.182334166860675 70.5956132181925 0.981762045716668 -19.1429938273022 0.981762045716668 -19.1429938273022 0.182334166860675 70.5956132181925 
! Gamma         0                0                0                0                
! Port Impedance         50               0                50               0                
18.16                          0.186744581289706 70.1201042743883 0.980933651719977 -19.6248043794663 0.980933651719977 -19.6248043794663 0.186744581289706 70.1201042743883 
! Gamma         0                0                0                0                
! Port Impedance         50               0                50               0                
18.18                          0.191134307835021 69.6451167216138 0.980088806242411 -20.1057942544867 0.980088806242411 -20.1057942544867 0.191134307835021 69.6451167216139 
! Gamma         0                0                0                0                
! Port Impedance         50               0                50               0                
18.2                           0.195502966415653 69.1706873313966 0.979227819985581 -20.5859481777732 0.979227819985582 -20.5859481777732 0.195502966415654 69.1706873313967 
! Gamma         0                0                0                0                
! Port Impedance         50               0                50               0                
18.22                          0.199850185864808 68.6968505195554 0.978351007539054 -21.0652512226374 0.978351007539054 -21.0652512226374 0.199850185864808 68.6968505195554 
! Gamma         0                0                0                0                
! Port Impedance         50               0                50               0                
18.24                          0.204175603988175 68.2236385719231 0.977458687157661 -21.5436888136778 0.977458687157662 -21.5436888136778 0.204175603988176 68.2236385719231 
! Gamma         0                0                0                0                
! Port Impedance         50               0                50               0                
18.26                          0.208478867614045 67.7510818396817 0.976551180539269 -22.0212467298811 0.976551180539268 -22.0212467298811 0.208478867614045 67.7510818396817 
! Gamma         0                0                0                0                
! Port Impedance         50               0                50               0                
18.28                          0.212759632635285 67.2792089089938 0.975628812603255 -22.4979111074432 0.975628812603256 -22.4979111074432 0.212759632635285 67.2792089089938 
! Gamma         0                0                0                0                
! Port Impedance         50               0                50               0                
18.3                           0.217017564043236 66.8080467488146 0.974691911269981 -22.9736684423078 0.974691911269982 -22.9736684423078 0.217017564043236 66.8080467488146 
! Gamma         0                0                0                0                
! Port Impedance         50               0                50               0                
18.32                          0.221252335953653 66.3376208401143 0.973740807241481 -23.4485055924296 0.973740807241481 -23.4485055924296 0.221252335953653 66.3376208401143 
! Gamma         0                0                0                0                
! Port Impedance         50               0                50               0                
18.34                          0.225463631624768 65.8679552892161 0.972775833783639 -23.9224097797631 0.972775833783639 -23.9224097797631 0.225463631624769 65.8679552892161 
! Gamma         0                0                0                0                
! Port Impedance         50               0                50               0                
18.36                          0.22965114346762 65.399072927515  0.971797326510089 -24.3953685919797 0.971797326510089 -24.3953685919797 0.22965114346762 65.399072927515  
! Gamma         0                0                0                0                
! Port Impedance         50               0                50               0                
18.38                          0.233814573048768 64.9309953994873 0.970805623168055 -24.8673699839187 0.970805623168055 -24.8673699839187 0.233814573048768 64.9309953994872 
! Gamma         0                0                0                0                
! Port Impedance         50               0                50               0                
18.4                           0.237953631085541 64.4637432406058 0.969801063426364 -25.3384022787734 0.969801063426364 -25.3384022787734 0.237953631085541 64.4637432406058 
! Gamma         0                0                0                0                
! Port Impedance         50               0                50               0                
18.42                          0.242068037433982 63.9973359465275 0.968783988665836 -25.8084541690204 0.968783988665836 -25.8084541690205 0.242068037433982 63.9973359465275 
! Gamma         0                0                0                0                
! Port Impedance         50               0                50               0                
18.44                          0.246157521069621 63.5317920347202 0.967754741772265 -26.2775147170913 0.967754741772265 -26.2775147170913 0.246157521069621 63.5317920347202 
! Gamma         0                0                0                0                
! Port Impedance         50               0                50               0                
18.46                          0.250221820061301 63.0671290995194 0.966713666932164 -26.7455733557967 0.966713666932164 -26.7455733557967 0.250221820061301 63.0671290995193 
! Gamma         0                0                0                0                
! Port Impedance         50               0                50               0                
18.48                          0.254260681538176 62.6033638614669 0.965661109431481 -27.2126198885047 0.965661109431481 -27.2126198885047 0.254260681538176 62.603363861467  
! Gamma         0                0                0                0                
! Port Impedance         50               0                50               0                
18.5                           0.258273861650102 62.1405122116619 0.964597415457446 -27.6786444890776 0.964597415457446 -27.6786444890776 0.258273861650102 62.1405122116618 
! Gamma         0                0                0                0                
! Port Impedance         50               0                50               0                
18.52                          0.262261125521618 61.6785892517468 0.963522931903707 -28.1436377015777 0.963522931903707 -28.1436377015777 0.262261125521619 61.6785892517468 
! Gamma         0                0                0                0                
! Port Impedance         50               0                50               0                
18.54                          0.266222247199679 61.2176093300788 0.96243800617894 -28.6075904397401 0.96243800617894 -28.6075904397401 0.266222247199678 61.2176093300789 
! Gamma         0                0                0                0                
! Port Impedance         50               0                50               0                
18.56                          0.270157009595379 60.757586074544  0.961342986019029 -29.0704939862257 0.961342986019029 -29.0704939862257 0.270157009595379 60.7575860745441 
! Gamma         0                0                0                0                
! Port Impedance         50               0                50               0                
18.58                          0.274065204419848 60.2985324224293 0.960238219303004 -29.5323399916542 0.960238219303004 -29.5323399916542 0.274065204419848 60.2985324224293 
! Gamma         0                0                0                0                
! Port Impedance         50               0                50               0                
18.6                           0.277946632114547 59.8404606476976 0.959124053872822 -29.993120473428 0.959124053872822 -29.993120473428 0.277946632114547 59.8404606476977 
! Gamma         0                0                0                0                
! Port Impedance         50               0                50               0                
18.62                          0.281801101776147 59.3833823859775 0.958000837357122 -30.4528278143493 0.958000837357122 -30.4528278143493 0.281801101776147 59.3833823859775 
! Gamma         0                0                0                0                
! Port Impedance         50               0                50               0                
18.64                          0.285628431076244 58.9273086575312 0.956868916999067 -30.9114547610383 0.956868916999067 -30.9114547610383 0.285628431076244 58.9273086575311 
! Gamma         0                0                0                0                
! Port Impedance         50               0                50               0                
18.66                          0.289428446176097 58.4722498884353 0.955728639488353 -31.3689944221611 0.955728639488353 -31.3689944221611 0.289428446176097 58.4722498884353 
! Gamma         0                0                0                0                
! Port Impedance         50               0                50               0                
18.68                          0.293200981636616 58.0182159301795 0.954580350797486 -31.8254402664679 0.954580350797486 -31.8254402664679 0.293200981636616 58.0182159301796 
! Gamma         0                0                0                0                
! Port Impedance         50               0                50               0                
18.7                           0.296945880323824 57.5652160778603 0.953424396022395 -32.2807861206551 0.953424396022395 -32.2807861206551 0.296945880323824 57.5652160778603 
! Gamma         0                0                0                0                
! Port Impedance         50               0                50               0                
18.72                          0.30066299331    57.1132590871272 0.952261119227457 -32.735026167052 0.952261119227457 -32.735026167052 0.30066299331    57.1132590871271 
! Gamma         0                0                0                0                
! Port Impedance         50               0                50               0                
18.74                          0.304352179770731 56.6623531900206 0.951090863294981 -33.1881549411422 0.951090863294981 -33.1881549411422 0.304352179770731 56.6623531900206 
! Gamma         0                0                0                0                
! Port Impedance         50               0                50               0                
18.76                          0.308013306878099 56.2125061098199 0.949913969779225 -33.6401673289254 0.949913969779225 -33.6401673289254 0.308013306878099 56.2125061098199 
! Gamma         0                0                0                0                
! Port Impedance         50               0                50               0                
18.78                          0.311646249690182 55.7637250750122 0.948730778764962 -34.0910585641251 0.948730778764963 -34.0910585641251 0.311646249690182 55.7637250750122 
! Gamma         0                0                0                0                
! Port Impedance         50               0                50               0                
18.8                           0.315250891037145 55.3160168324716 0.947541628730643 -34.540824225251 0.947541628730643 -34.540824225251 0.315250891037145 55.3160168324716 
! Gamma         0                0                0                0                
! Port Impedance         50               0                50               0                
18.82                          0.31882712140408 54.8693876599363 0.946346856416181 -34.9894602325211 0.946346856416181 -34.989460232521 0.31882712140408 54.8693876599363 
! Gamma         0                0                0                0                
! Port Impedance         50               0                50               0                
18.84                          0.322374838810834 54.4238433778538 0.945146796695376 -35.4369628446502 0.945146796695376 -35.4369628446502 0.322374838810834 54.4238433778537 
! Gamma         0                0                0                0                
! Port Impedance         50               0                50               0                
18.86                          0.325893948689036 53.9793893606607 0.943941782452982 -35.8833286555134 0.943941782452982 -35.8833286555134 0.325893948689036 53.9793893606608 
! Gamma         0                0                0                0                
! Port Impedance         50               0                50               0                
18.88                          0.329384363756514 53.5360305475544 0.94273214446643 -36.3285545906874 0.94273214446643 -36.3285545906874 0.329384363756513 53.5360305475544 
! Gamma         0                0                0                0                
! Port Impedance         50               0                50               0                
18.9                           0.332846003889313 53.0937714528058 0.941518211292196 -36.7726379038804 0.941518211292196 -36.7726379038804 0.332846003889313 53.0937714528058 
! Gamma         0                0                0                0                
! Port Impedance         50               0                50               0                
18.92                          0.33627879599153 52.6526161756606 0.940300309156803 -37.2155761732538 0.940300309156803 -37.2155761732538 0.33627879599153 52.6526161756606 
! Gamma         0                0                0                0                
! Port Impedance         50               0                50               0                
18.94                          0.339682673863129 52.2125684098669 0.939078761852447 -37.6573672976441 0.939078761852447 -37.6573672976441 0.33968267386313 52.2125684098669 
! Gamma         0                0                0                0                
! Port Impedance         50               0                50               0                
18.96                          0.343057578065957 51.7736314528648 0.93785389063721 -38.0980094926892 0.93785389063721 -38.0980094926892 0.343057578065957 51.7736314528648 
! Gamma         0                0                0                0                
! Port Impedance         50               0                50               0                
18.98                          0.346403455788143 51.3358082146698 0.936626014139843 -38.5375012868685 0.936626014139843 -38.5375012868685 0.346403455788143 51.3358082146698 
! Gamma         0                0                0                0                
! Port Impedance         50               0                50               0                
19                             0.349720260707051 50.8991012264768 0.935395448269073 -38.9758415174597 0.935395448269073 -38.9758415174597 0.349720260707051 50.8991012264767 
! Gamma         0                0                0                0                
! Port Impedance         50               0                50               0                
19.02                          0.353007952850987 50.4635126490102 0.934162506127407 -39.4130293264198 0.934162506127407 -39.4130293264198 0.353007952850987 50.4635126490101 
! Gamma         0                0                0                0                
! Port Impedance         50               0                50               0                
19.04                          0.356266498459823 50.0290442806399 0.932927497929364 -39.8490641561976 0.932927497929364 -39.8490641561976 0.356266498459824 50.0290442806399 
! Gamma         0                0                0                0                
! Port Impedance         50               0                50               0                
19.06                          0.359495869844704 49.5956975652856 0.931690730924116 -40.2839457454794 0.931690730924116 -40.2839457454794 0.359495869844704 49.5956975652856 
! Gamma         0                0                0                0                
! Port Impedance         50               0                50               0                
19.08                          0.362696045247024 49.1634736001219 0.930452509322449 -40.7176741248797 0.930452509322449 -40.7176741248797 0.362696045247024 49.1634736001219 
! Gamma         0                0                0                0                
! Port Impedance         50               0                50               0                
19.1                           0.365867008696804 48.7323731431037 0.92921313422801 -41.1502496125759 0.92921313422801 -41.1502496125759 0.365867008696804 48.7323731431037 
! Gamma         0                0                0                0                
! Port Impedance         50               0                50               0                
19.12                          0.369008749870655 48.3023966203215 0.927972903572762 -41.581672809898 0.927972903572762 -41.581672809898 0.369008749870656 48.3023966203215 
! Gamma         0                0                0                0                
! Port Impedance         50               0                50               0                
19.14                          0.372121263949457 47.8735441332011 0.926732112056591 -42.0119445968753 0.926732112056591 -42.0119445968753 0.372121263949457 47.8735441332012 
! Gamma         0                0                0                0                
! Port Impedance         50               0                50               0                
19.16                          0.375204551475903 47.4458154655559 0.925491051090978 -42.4410661277459 0.925491051090978 -42.4410661277459 0.375204551475903 47.4458154655559 
! Gamma         0                0                0                0                
! Port Impedance         50               0                50               0                
19.18                          0.378258618212064 47.0192100905012 0.924250008746683 -42.869038826436 0.924250008746683 -42.869038826436 0.378258618212064 47.0192100905012 
! Gamma         0                0                0                0                
! Port Impedance         50               0                50               0                
19.2                           0.381283474997083 46.5937271772408 0.923009269705345 -43.2958643820111 0.923009269705345 -43.2958643820111 0.381283474997084 46.5937271772408 
! Gamma         0                0                0                0                
! Port Impedance         50               0                50               0                
19.22                          0.384279137605151 46.1693655977286 0.921769115214934 -43.7215447441052 0.921769115214933 -43.7215447441052 0.384279137605151 46.1693655977286 
! Gamma         0                0                0                0                
! Port Impedance         50               0                50               0                
19.24                          0.387245626603876 45.7461239332162 0.92052982304896 -44.1460821183339 0.92052982304896 -44.1460821183339 0.387245626603876 45.7461239332162 
! Gamma         0                0                0                0                
! Port Impedance         50               0                50               0                
19.26                          0.390182967213171 45.3240004806868 0.919291667469371 -44.5694789616937 0.919291667469371 -44.5694789616937 0.390182967213171 45.3240004806868 
! Gamma         0                0                0                0                
! Port Impedance         50               0                50               0                
19.28                          0.393091189164774 44.902993259185  0.918054919193031 -44.9917379779532 0.918054919193031 -44.9917379779532 0.393091189164774 44.902993259185  
! Gamma         0                0                0                0                
! Port Impedance         50               0                50               0                
19.3                           0.395970326562494 44.4831000160432 0.916819845361721 -45.4128621130398 0.916819845361721 -45.4128621130398 0.395970326562495 44.4831000160431 
! Gamma         0                0                0                0                
! Port Impedance         50               0                50               0                
19.32                          0.398820417743324 44.0643182330091 0.915586709515548 -45.8328545504269 0.915586709515548 -45.8328545504269 0.398820417743324 44.0643182330091 
! Gamma         0                0                0                0                
! Port Impedance         50               0                50               0                
19.34                          0.401641505139462 43.6466451322786 0.914355771569684 -46.251718706524 0.914355771569684 -46.251718706524 0.401641505139462 43.6466451322786 
! Gamma         0                0                0                0                
! Port Impedance         50               0                50               0                
19.36                          0.404433635141399 43.2300776824335 0.913127287794342 -46.6694582260758 0.913127287794342 -46.6694582260758 0.4044336351414  43.2300776824335 
! Gamma         0                0                0                0                
! Port Impedance         50               0                50               0                
19.38                          0.407196857962103 42.814612604291  0.911901510797899 -47.0860769775706 0.911901510797899 -47.0860769775705 0.407196857962103 42.814612604291  
! Gamma         0                0                0                0                
! Port Impedance         50               0                50               0                
19.4                           0.409931227502418 42.4002463766629 0.910678689513074 -47.501579048665 0.910678689513074 -47.501579048665 0.409931227502418 42.4002463766629 
! Gamma         0                0                0                0                
! Port Impedance         50               0                50               0                
19.42                          0.412636801217751 41.986975242028  0.909459069186057 -47.9159687416265 0.909459069186057 -47.9159687416265 0.412636801217751 41.986975242028  
! Gamma         0                0                0                0                
! Port Impedance         50               0                50               0                
19.44                          0.415313639986103 41.5747952121193 0.908242891368516 -48.3292505687958 0.908242891368515 -48.3292505687958 0.415313639986103 41.5747952121192 
! Gamma         0                0                0                0                
! Port Impedance         50               0                50               0                
19.46                          0.417961807977541 41.1637020734261 0.90703039391237 -48.7414292480758 0.90703039391237 -48.7414292480758 0.417961807977541 41.1637020734261 
! Gamma         0                0                0                0                
! Port Impedance         50               0                50               0                
19.48                          0.420581372525146 40.7536913926137 0.905821810967247 -49.1525096984458 0.905821810967248 -49.1525096984458 0.420581372525146 40.7536913926137 
! Gamma         0                0                0                0                
! Port Impedance         50               0                50               0                
19.5                           0.423172403997522 40.3447585218596 0.904617372980528 -49.5624970355075 0.904617372980528 -49.5624970355076 0.423172403997522 40.3447585218596 
! Gamma         0                0                0                0                
! Port Impedance         50               0                50               0                
19.52                          0.425734975672902 39.9368986041094 0.903417306699884 -49.9713965670618 0.903417306699884 -49.9713965670618 0.425734975672902 39.9368986041094 
! Gamma         0                0                0                0                
! Port Impedance         50               0                50               0                
19.54                          0.428269163614912 39.5301065782502 0.902221835178221 -50.379213788722 0.902221835178221 -50.379213788722 0.428269163614912 39.5301065782502 
! Gamma         0                0                0                0                
! Port Impedance         50               0                50               0                
19.56                          0.430775046550047 39.1243771842042 0.901031177780931 -50.785954379565 0.901031177780931 -50.785954379565 0.430775046550047 39.1243771842042 
! Gamma         0                0                0                0                
! Port Impedance         50               0                50               0                
19.58                          0.433252705746878 38.719704967943  0.899845550195369 -51.1916241978207 0.899845550195369 -51.1916241978207 0.433252705746878 38.719704967943  
! Gamma         0                0                0                0                
! Port Impedance         50               0                50               0                
19.6                           0.43570222489706 38.3160842864206 0.898665164442458 -51.5962292766048 0.898665164442458 -51.5962292766048 0.43570222489706 38.3160842864206 
! Gamma         0                0                0                0                
! Port Impedance         50               0                50               0                
19.62                          0.438123689998146 37.913509312429  0.897490228890335 -51.9997758196947 0.897490228890335 -51.9997758196947 0.438123689998146 37.913509312429  
! Gamma         0                0                0                0                
! Port Impedance         50               0                50               0                
19.64                          0.440517189238268 37.5119740393731 0.896320948269956 -52.402270197352 0.896320948269956 -52.4022701973521 0.440517189238268 37.5119740393731 
! Gamma         0                0                0                0                
! Port Impedance         50               0                50               0                
19.66                          0.442882812882685 37.1114722859684 0.895157523692562 -52.8037189421914 0.895157523692563 -52.8037189421914 0.442882812882685 37.1114722859684 
! Gamma         0                0                0                0                
! Port Impedance         50               0                50               0                
19.68                          0.445220653162245 36.711997700859  0.894000152668935 -53.2041287450998 0.894000152668935 -53.2041287450998 0.445220653162244 36.7119977008591 
! Gamma         0                0                0                0                
! Port Impedance         50               0                50               0                
19.7                           0.447530804163766 36.3135437671586 0.892849029130339 -53.6035064512057 0.892849029130339 -53.6035064512057 0.447530804163766 36.3135437671586 
! Gamma         0                0                0                0                
! Port Impedance         50               0                50               0                
19.72                          0.449813361722367 35.9161038069125 0.891704343451096 -54.0018590559003 0.891704343451096 -54.0018590559003 0.449813361722367 35.9161038069125 
! Gamma         0                0                0                0                
! Port Impedance         50               0                50               0                
19.74                          0.452068423315756 35.519670985482  0.890566282472671 -54.3991937009135 0.890566282472672 -54.3991937009134 0.452068423315756 35.519670985482  
! Gamma         0                0                0                0                
! Port Impedance         50               0                50               0                
19.76                          0.454296087960481 35.1242383158524 0.889435029529234 -54.7955176704419 0.889435029529235 -54.7955176704419 0.454296087960481 35.1242383158524 
! Gamma         0                0                0                0                
! Port Impedance         50               0                50               0                
19.78                          0.456496456110181 34.7297986628614 0.888310764474578 -55.1908383873358 0.888310764474578 -55.1908383873358 0.456496456110181 34.7297986628614 
! Gamma         0                0                0                0                
! Port Impedance         50               0                50               0                
19.8                           0.458669629555798 34.3363447473537 0.887193663710349 -55.5851634093396 0.887193663710349 -55.5851634093395 0.458669629555798 34.3363447473537 
! Gamma         0                0                0                0                
! Port Impedance         50               0                50               0                
19.82                          0.460815711327802 33.9438691502556 0.886083900215492 -55.9785004253922 0.886083900215492 -55.9785004253922 0.460815711327802 33.9438691502555 
! Gamma         0                0                0                0                
! Port Impedance         50               0                50               0                
19.84                          0.462934805600395 33.5523643165747 0.884981643576846 -56.3708572519847 0.884981643576846 -56.3708572519847 0.462934805600395 33.5523643165747 
! Gamma         0                0                0                0                
! Port Impedance         50               0                50               0                
19.86                          0.465027017597709 33.1618225593243 0.883887060020825 -56.7622418295772 0.883887060020825 -56.7622418295772 0.465027017597709 33.1618225593243 
! Gamma         0                0                0                0                
! Port Impedance         50               0                50               0                
19.88                          0.467092453502   32.7722360633696 0.882800312446093 -57.1526622190762 0.882800312446094 -57.1526622190762 0.467092453502   32.7722360633696 
! Gamma         0                0                0                0                
! Port Impedance         50               0                50               0                
19.9                           0.469131220363807 32.3835968892004 0.881721560457191 -57.5421265983705 0.881721560457191 -57.5421265983705 0.469131220363807 32.3835968892003 
! Gamma         0                0                0                0                
! Port Impedance         50               0                50               0                
19.92                          0.471143426014108 31.9958969766279 0.880650960399029 -57.9306432589301 0.880650960399029 -57.9306432589301 0.471143426014108 31.9958969766279 
! Gamma         0                0                0                0                
! Port Impedance         50               0                50               0                
19.94                          0.473129178978426 31.6091281484067 0.879588665392187 -58.3182206024642 0.879588665392187 -58.3182206024642 0.473129178978426 31.6091281484068 
! Gamma         0                0                0                0                
! Port Impedance         50               0                50               0                
19.96                          0.475088588392902 31.2232821137829 0.87853482536896 -58.7048671376419 0.87853482536896 -58.7048671376419 0.475088588392902 31.2232821137829 
! Gamma         0                0                0                0                
! Port Impedance         50               0                50               0                
19.98                          0.477021763922298 30.8383504719675 0.877489587110084 -59.090591476874 0.877489587110084 -59.090591476874 0.477021763922298 30.8383504719676 
! Gamma         0                0                0                0                
! Port Impedance         50               0                50               0                
20                             0.478928815679942 30.454324715538  0.876453094282092 -59.4754023331568 0.876453094282092 -59.4754023331568 0.478928815679942 30.454324715538  
! Gamma         0                0                0                0                
! Port Impedance         50               0                50               0                
! Noise Data
