! Touchstone file exported from Circuit Design 2026.1.0
!        File:           local/demo-project/Project1.aedt
!        Generated:      01:59:13 PM Apr 21, 2026
!        Design:         Circuit1
!        Project:        Project1
!        Setup:          LinearFrequency
!        Solution:       LinearFrequency
!
# GHz S MA R 50.000000
! Terminal data exported
! Port[1] = Port1
! Port[2] = Port2
0                              0.000135740469670573 -0               0.99986425953033 -0               0.99986425953033 -0               0.000135740469670448 -0               
! Gamma         0                0                0                0                
! Port Impedance         50               0                50               0                
0.02                           0.00526622167133641 87.8988905894919 0.999842671431063 -0.53996240749557 0.999842671431063 -0.53996240749557 0.00526622167133642 87.8988905894932 
! Gamma         0                0                0                0                
! Port Impedance         50               0                50               0                
0.04                           0.0105195080525856 88.0523093197853 0.999785258388969 -1.07935199653057 0.999785258388969 -1.07935199653057 0.0105195080525856 88.0523093197846 
! Gamma         0                0                0                0                
! Port Impedance         50               0                50               0                
0.06                           0.0157640006791926 87.7395697133251 0.999699065411166 -1.61823443222792 0.999699065411165 -1.61823443222792 0.0157640006791926 87.7395697133251 
! Gamma         0                0                0                0                
! Port Impedance         50               0                50               0                
0.08                           0.0210013192836791 87.3157020084999 0.99958608801788 -2.15673944186689 0.99958608801788 -2.15673944186689 0.0210013192836791 87.3157020085003 
! Gamma         0                0                0                0                
! Port Impedance         50               0                50               0                
0.1                            0.0262322937953569 86.8483117731506 0.999446762019579 -2.69493218872962 0.999446762019579 -2.69493218872962 0.0262322937953568 86.8483117731503 
! Gamma         0                0                0                0                
! Port Impedance         50               0                50               0                
0.12                           0.0314571121599838 86.3592717097338 0.999281162207554 -3.2328380413436 0.999281162207554 -3.2328380413436 0.0314571121599838 86.3592717097342 
! Gamma         0                0                0                0                
! Port Impedance         50               0                50               0                
0.14                           0.0366756129404652 85.8578395370009 0.999089291376329 -3.77046150976986 0.999089291376329 -3.77046150976986 0.0366756129404652 85.8578395370009 
! Gamma         0                0                0                0                
! Port Impedance         50               0                50               0                
0.16                           0.0418874413361464 85.3486426733552 0.99887115362691 -4.30779568624598 0.99887115362691 -4.30779568624598 0.0418874413361464 85.3486426733554 
! Gamma         0                0                0                0                
! Port Impedance         50               0                50               0                
0.18                           0.0470921297415508 84.8342734548552 0.998626773119329 -4.84482701314715 0.998626773119329 -4.84482701314715 0.0470921297415509 84.8342734548552 
! Gamma         0                0                0                0                
! Port Impedance         50               0                50               0                
0.2                            0.052289141557112 84.3163107280921 0.998356197754498 -5.3815378462194 0.998356197754498 -5.3815378462194 0.052289141557112 84.3163107280919 
! Gamma         0                0                0                0                
! Port Impedance         50               0                50               0                
0.22                           0.0574778965000457 83.7957799823195 0.998059498600386 -5.9179079234134 0.998059498600386 -5.9179079234134 0.0574778965000457 83.7957799823192 
! Gamma         0                0                0                0                
! Port Impedance         50               0                50               0                
0.24                           0.0626577860715449 83.2733824633788 0.997736768266755 -6.45391525596869 0.997736768266755 -6.45391525596869 0.0626577860715448 83.273382463379  
! Gamma         0                0                0                0                
! Port Impedance         50               0                50               0                
0.26                           0.0678281834928932 82.7496184796919 0.997388119197711 -6.98953669652262 0.99738811919771 -6.98953669652262 0.0678281834928932 82.749618479692  
! Gamma         0                0                0                0                
! Port Impedance         50               0                50               0                
0.28                           0.0729884503778537 82.2248580138668 0.997013682150833 -7.5247483173554 0.997013682150833 -7.52474831735541 0.0729884503778537 82.224858013867  
! Gamma         0                0                0                0                
! Port Impedance         50               0                50               0                
0.3                            0.0781379413946209 81.6993832628149 0.996613604907662 -8.0595256720445 0.996613604907662 -8.0595256720445 0.0781379413946208 81.6993832628149 
! Gamma         0                0                0                0                
! Port Impedance         50               0                50               0                
0.32                           0.0832760076417214 81.1734153716538 0.996188051192765 -8.59384398275662 0.996188051192765 -8.59384398275662 0.0832760076417214 81.1734153716538 
! Gamma         0                0                0                0                
! Port Impedance         50               0                50               0                
0.34                           0.0884019991733072 80.6471318449433 0.995737199763242 -9.12767827850986 0.995737199763241 -9.12767827850986 0.0884019991733073 80.6471318449432 
! Gamma         0                0                0                0                
! Port Impedance         50               0                50               0                
0.36                           0.0935152669447809 80.1206782381875 0.99526124363201 -9.66100350014554 0.995261243632009 -9.66100350014554 0.0935152669447809 80.1206782381876 
! Gamma         0                0                0                0                
! Port Impedance         50               0                50               0                
0.38                           0.098615164352527 79.5941762189796 0.994760389394213 -10.1937945820943 0.994760389394213 -10.1937945820943 0.0986151643525271 79.5941762189795 
! Gamma         0                0                0                0                
! Port Impedance         50               0                50               0                
0.4                            0.103701048482231 79.0677292549382 0.99423485663247 -10.7260265175766 0.99423485663247 -10.7260265175766 0.103701048482231 79.0677292549382 
! Gamma         0                0                0                0                
! Port Impedance         50               0                50               0                
0.42                           0.108772281143015 78.541426709545  0.99368487738216 -11.2576744117163 0.993684877382159 -11.2576744117163 0.108772281143014 78.541426709545  
! Gamma         0                0                0                0                
! Port Impedance         50               0                50               0                
0.44                           0.113828229740603 78.0153468451557 0.993110695642382 -11.7887135256522 0.993110695642383 -11.7887135256522 0.113828229740603 78.015346845156  
! Gamma         0                0                0                0                
! Port Impedance         50               0                50               0                
0.46                           0.118868268026899 77.4895590604326 0.99251256692162 -12.3191193138171 0.99251256692162 -12.3191193138171 0.118868268026899 77.4895590604327 
! Gamma         0                0                0                0                
! Port Impedance         50               0                50               0                
0.48                           0.12389177675265 76.9641255815544 0.991890757809746 -12.848867455932 0.991890757809746 -12.848867455932 0.12389177675265 76.9641255815544 
! Gamma         0                0                0                0                
! Port Impedance         50               0                50               0                
0.5                            0.128898144242587 76.4391027572437 0.991245545570019 -13.3779338848428 0.991245545570019 -13.3779338848428 0.128898144242587 76.4391027572437 
! Gamma         0                0                0                0                
! Port Impedance         50               0                50               0                
0.52                           0.133886766907265 75.9145420621264 0.990577217746222 -13.9062948110254 0.990577217746222 -13.9062948110254 0.133886766907265 75.9145420621264 
! Gamma         0                0                0                0                
! Port Impedance         50               0                50               0                
0.54                           0.138857049702237 75.3904908824347 0.989886071781252 -14.4339267443793 0.989886071781252 -14.4339267443793 0.138857049702237 75.3904908824348 
! Gamma         0                0                0                0                
! Port Impedance         50               0                50               0                
0.56                           0.143808406542573 74.8669931372774 0.98917241464435 -14.9608065137757 0.98917241464435 -14.9608065137757 0.143808406542573 74.8669931372775 
! Gamma         0                0                0                0                
! Port Impedance         50               0                50               0                
0.58                           0.148740260678822 74.3440897742663 0.988436562464869 -15.4869112847161 0.988436562464869 -15.4869112847161 0.148740260678822 74.3440897742662 
! Gamma         0                0                0                0                
! Port Impedance         50               0                50               0                
0.6                            0.153652045039153 73.8218191681515 0.987678840170982 -16.0122185753773 0.987678840170982 -16.0122185753773 0.153652045039154 73.8218191681514 
! Gamma         0                0                0                0                
! Port Impedance         50               0                50               0                
0.62                           0.158543202541327 73.3002174438588 0.986899581132163 -16.5367062712554 0.986899581132163 -16.5367062712554 0.158543202541327 73.3002174438588 
! Gamma         0                0                0                0                
! Port Impedance         50               0                50               0                
0.64                           0.163413186377417 72.779318740095  0.986099126804576 -17.0603526385795 0.986099126804576 -17.0603526385795 0.163413186377417 72.7793187400949 
! Gamma         0                0                0                0                
! Port Impedance         50               0                50               0                
0.66                           0.168261460273575 72.2591554258469 0.985277826378799 -17.5831363366263 0.985277826378799 -17.5831363366263 0.168261460273575 72.259155425847  
! Gamma         0                0                0                0                
! Port Impedance         50               0                50               0                
0.68                           0.173087498726714 71.7397582792722 0.984436036429462 -18.1050364290447 0.984436036429462 -18.1050364290447 0.173087498726714 71.7397582792721 
! Gamma         0                0                0                0                
! Port Impedance         50               0                50               0                
0.7                            0.177890787219608 71.2211566363526 0.983574120566586 -18.6260323942764 0.983574120566586 -18.6260323942764 0.177890787219607 71.2211566363526 
! Gamma         0                0                0                0                
! Port Impedance         50               0                50               0                
0.72                           0.182670822415686 70.7033785150895 0.982692449088483 -19.1461041351425 0.982692449088482 -19.1461041351425 0.182670822415686 70.7033785150895 
! Gamma         0                0                0                0                
! Port Impedance         50               0                50               0                
0.74                           0.18742711233456 70.1864507197958 0.981791398636241 -19.6652319876562 0.98179139863624 -19.6652319876562 0.18742711233456 70.1864507197959 
! Gamma         0                0                0                0                
! Port Impedance         50               0                50               0                
0.76                           0.192159176509185 69.6703989291101 0.980871351849817 -20.183396729108 0.980871351849818 -20.183396729108 0.192159176509185 69.6703989291101 
! Gamma         0                0                0                0                
! Port Impedance         50               0                50               0                
0.78                           0.196866546125427 69.1552477706291 0.979932697025906 -20.7005795854662 0.979932697025905 -20.7005795854662 0.196866546125427 69.1552477706291 
! Gamma         0                0                0                0                
! Port Impedance         50               0                50               0                
0.8                            0.201548764144722 68.6410208844943 0.978975827777723 -21.2167622381267 0.978975827777722 -21.2167622381267 0.201548764144722 68.6410208844943 
! Gamma         0                0                0                0                
! Port Impedance         50               0                50               0                
0.82                           0.206205385410436 68.1277409778214 0.978001142696945 -21.7319268300424 0.978001142696945 -21.7319268300424 0.206205385410436 68.1277409778213 
! Gamma         0                0                0                0                
! Port Impedance         50               0                50               0                
0.84                           0.210835976738472 67.6154298715121 0.977009045018031 -22.246055971259 0.977009045018031 -22.246055971259 0.210835976738472 67.615429871512  
! Gamma         0                0                0                0                
! Port Impedance         50               0                50               0                
0.86                           0.215440116992654 67.1041085407099 0.975999942285173 -22.7591327438792 0.975999942285173 -22.7591327438792 0.215440116992654 67.10410854071   
! Gamma         0                0                0                0                
! Port Impedance         50               0                50               0                
0.88                           0.22001739714534 66.5937971499344 0.974974246022181 -23.2711407064787 0.974974246022181 -23.2711407064787 0.22001739714534 66.5937971499343 
! Gamma         0                0                0                0                
! Port Impedance         50               0                50               0                
0.9                            0.22456742032375 66.0845150837503 0.973932371405548 -23.7820638979904 0.973932371405548 -23.7820638979904 0.22456742032375 66.0845150837503 
! Gamma         0                0                0                0                
! Port Impedance         50               0                50               0                
0.92                           0.229089801842428 65.5762809736863 0.972874736941018 -24.2918868410768 0.972874736941018 -24.2918868410768 0.229089801842428 65.5762809736863 
! Gamma         0                0                0                0                
! Port Impedance         50               0                50               0                
0.94                           0.233584169222258 65.0691127219892 0.971801764143906 -24.8005945450053 0.971801764143907 -24.8005945450053 0.233584169222258 65.0691127219891 
! Gamma         0                0                0                0                
! Port Impedance         50               0                50               0                
0.96                           0.238050162196477 64.5630275227138 0.970713877223498 -25.3081725080425 0.970713877223498 -25.3081725080425 0.238050162196476 64.5630275227139 
! Gamma         0                0                0                0                
! Port Impedance         50               0                50               0                
0.98                           0.242487432704055 64.0580418805611 0.969611502771771 -25.8146067193835 0.969611502771771 -25.8146067193835 0.242487432704055 64.0580418805611 
! Gamma         0                0                0                0                
! Port Impedance         50               0                50               0                
1                              0.246895644870893 63.5541716278154 0.968495069456741 -26.3198836606279 0.968495069456741 -26.3198836606279 0.246895644870893 63.5541716278155 
! Gamma         0                0                0                0                
! Port Impedance         50               0                50               0                
1.02                           0.251274474979192 63.051431939674  0.967365007720685 -26.8239903068194 0.967365007720684 -26.8239903068195 0.251274474979192 63.051431939674  
! Gamma         0                0                0                0                
! Port Impedance         50               0                50               0                
1.04                           0.255623611425442 62.5498373482204 0.966221749483494 -27.3269141270598 0.966221749483494 -27.3269141270598 0.255623611425442 62.5498373482204 
! Gamma         0                0                0                0                
! Port Impedance         50               0                50               0                
1.06                           0.259942754667399 62.0494017552507 0.965065727851424 -27.8286430847122 0.965065727851423 -27.8286430847122 0.259942754667399 62.0494017552507 
! Gamma         0                0                0                0                
! Port Impedance         50               0                50               0                
1.08                           0.264231617160464 61.5501384441346 0.963897376831432 -28.3291656372065 0.963897376831432 -28.3291656372065 0.264231617160464 61.5501384441346 
! Gamma         0                0                0                0                
! Port Impedance         50               0                50               0                
1.1                            0.268489923283866 61.0520600908621 0.962717131051372 -28.8284707354588 0.962717131051372 -28.8284707354588 0.268489923283866 61.0520600908621 
! Gamma         0                0                0                0                
! Port Impedance         50               0                50               0                
1.12                           0.272717409257046 60.555178774407  0.96152542548621 -29.3265478229198 0.96152542548621 -29.3265478229198 0.272717409257046 60.5551787744069 
! Gamma         0                0                0                0                
! Port Impedance         50               0                50               0                
1.14                           0.276913823046647 60.0595059865172 0.96032269519048 -29.823386834262 0.96032269519048 -29.823386834262 0.276913823046647 60.0595059865172 
! Gamma         0                0                0                0                
! Port Impedance         50               0                50               0                
1.16                           0.281078924264507 59.5650526410273 0.959109375037136 -30.3189781937212 0.959109375037135 -30.3189781937212 0.281078924264508 59.5650526410273 
! Gamma         0                0                0                0                
! Port Impedance         50               0                50               0                
1.18                           0.285212484057063 59.0718290827735 0.957885899462978 -30.813312813103 0.957885899462978 -30.813312813103 0.285212484057063 59.0718290827735 
! Gamma         0                0                0                0                
! Port Impedance         50               0                50               0                
1.2                            0.289314284986557 58.5798450961788 0.956652702220795 -31.3063820894679 0.956652702220795 -31.3063820894678 0.289314284986557 58.5798450961788 
! Gamma         0                0                0                0                
! Port Impedance         50               0                50               0                
1.22                           0.293384120904448 58.0891099135695 0.955410216138345 -31.798177902507 0.955410216138345 -31.798177902507 0.293384120904448 58.0891099135695 
! Gamma         0                0                0                0                
! Port Impedance         50               0                50               0                
1.24                           0.297421796817432 57.5996322232691 0.95415887288431 -32.2886926116211 0.95415887288431 -32.2886926116211 0.297421796817432 57.5996322232692 
! Gamma         0                0                0                0                
! Port Impedance         50               0                50               0                
1.26                           0.30142712874645 57.1114201775155 0.952899102741308 -32.7779190527153 0.952899102741308 -32.7779190527153 0.301427128746449 57.1114201775155 
! Gamma         0                0                0                0                
! Port Impedance         50               0                50               0                
1.28                           0.305399943579088 56.6244814002349 0.951631334386055 -33.2658505347216 0.951631334386055 -33.2658505347216 0.305399943579088 56.6244814002348 
! Gamma         0                0                0                0                
! Port Impedance         50               0                50               0                
1.3                            0.309340078915758 56.1388229947024 0.950355994676761 -33.7524808358621 0.950355994676761 -33.7524808358621 0.309340078915757 56.1388229947024 
! Gamma         0                0                0                0                
! Port Impedance         50               0                50               0                
1.32                           0.313247382910029 55.6544515511176 0.949073508447793 -34.2378041996643 0.949073508447793 -34.2378041996643 0.313247382910029 55.6544515511176 
! Gamma         0                0                0                0                
! Port Impedance         50               0                50               0                
1.34                           0.317121714103509 55.1713731541116 0.947784298311676 -34.7218153307417 0.947784298311676 -34.7218153307417 0.317121714103509 55.1713731541115 
! Gamma         0                0                0                0                
! Port Impedance         50               0                50               0                
1.36                           0.320962941255635 54.6895933902071 0.946488784468442 -35.2045093903502 0.946488784468442 -35.2045093903502 0.320962941255635 54.6895933902071 
! Gamma         0                0                0                0                
! Port Impedance         50               0                50               0                
1.38                           0.324770943168749 54.2091173552437 0.945187384522352 -35.6858819917334 0.945187384522352 -35.6858819917334 0.324770943168749 54.2091173552437 
! Gamma         0                0                0                0                
! Port Impedance         50               0                50               0                
1.4                            0.328545608508818 53.7299496617803 0.943880513305994 -36.1659291952687 0.943880513305994 -36.1659291952687 0.328545608508818 53.7299496617802 
! Gamma         0                0                0                0                
! Port Impedance         50               0                50               0                
1.42                           0.332286835622166 53.2520944464836 0.942568582711743 -36.6446475034242 0.942568582711743 -36.6446475034242 0.332286835622166 53.2520944464836 
! Gamma         0                0                0                0                
! Port Impedance         50               0                50               0                
1.44                           0.335994532348549 52.7755553775112 0.941252001530578 -37.12203385554  0.941252001530578 -37.12203385554  0.335994532348549 52.7755553775111 
! Gamma         0                0                0                0                
! Port Impedance         50               0                50               0                
1.46                           0.339668615830928 52.3003356618925 0.939931175298196 -37.5980856224434 0.939931175298196 -37.5980856224434 0.339668615830928 52.3003356618924 
! Gamma         0                0                0                0                
! Port Impedance         50               0                50               0                
1.48                           0.343309012322276 51.826438052913  0.93860650614841 -38.0728006009104 0.93860650614841 -38.0728006009104 0.343309012322276 51.826438052913  
! Gamma         0                0                0                0                
! Port Impedance         50               0                50               0                
1.5                            0.346915656989739 51.3538648575037 0.937278392673751 -38.5461770079837 0.937278392673751 -38.5461770079837 0.346915656989739 51.3538648575036 
! Gamma         0                0                0                0                
! Port Impedance         50               0                50               0                
1.52                           0.350488493716468 50.8826179436365 0.935947229793237 -39.0182134751578 0.935947229793237 -39.0182134751578 0.350488493716468 50.8826179436365 
! Gamma         0                0                0                0                
! Port Impedance         50               0                50               0                
1.54                           0.354027474901439 50.4126987477275 0.934613408627196 -39.4889090424429 0.934613408627196 -39.4889090424429 0.354027474901439 50.4126987477275 
! Gamma         0                0                0                0                
! Port Impedance         50               0                50               0                
1.56                           0.357532561257557 49.9441082820451 0.933277316379117 -39.9582631523161 0.933277316379117 -39.9582631523161 0.357532561257557 49.9441082820451 
! Gamma         0                0                0                0                
! Port Impedance         50               0                50               0                
1.58                           0.361003721608335 49.4768471421251 0.931939336224375 -40.4262756435715 0.931939336224375 -40.4262756435715 0.361003721608335 49.476847142125  
! Gamma         0                0                0                0                
! Port Impedance         50               0                50               0                
1.6                            0.364440932683429 49.0109155141872 0.930599847205785 -40.8929467450783 0.930599847205785 -40.8929467450783 0.364440932683429 49.0109155141872 
! Gamma         0                0                0                0                
! Port Impedance         50               0                50               0                
1.62                           0.367844178913309 48.5463131825536 0.929259224135845 -41.3582770694569 0.929259224135845 -41.3582770694569 0.367844178913309 48.5463131825536 
! Gamma         0                0                0                0                
! Port Impedance         50               0                50               0                
1.64                           0.371213452223318 48.0830395370657 0.927917837505571 -41.8222676066814 0.927917837505571 -41.8222676066814 0.371213452223318 48.0830395370657 
! Gamma         0                0                0                0                
! Port Impedance         50               0                50               0                
1.66                           0.374548751827381 47.6210935804949 0.926576053399802 -42.2849197176196 0.926576053399802 -42.2849197176196 0.374548751827381 47.6210935804949 
! Gamma         0                0                0                0                
! Port Impedance         50               0                50               0                
1.68                           0.377850084021604 47.1604739359456 0.925234233418844 -42.7462351275166 0.925234233418845 -42.7462351275166 0.377850084021605 47.1604739359456 
! Gamma         0                0                0                0                
! Port Impedance         50               0                50               0                
1.7                            0.381117461978   46.7011788542468 0.92389273460634 -43.2062159194331 0.92389273460634 -43.2062159194331 0.381117461978   46.7011788542468 
! Gamma         0                0                0                0                
! Port Impedance         50               0                50               0                
1.72                           0.384350905538552 46.2432062213262 0.9225519093832  -43.6648645276452 0.9225519093832  -43.6648645276452 0.384350905538552 46.2432062213262 
! Gamma         0                0                0                0                
! Port Impedance         50               0                50               0                
1.74                           0.387550441009858 45.7865535655659 0.921212105487493 -44.1221837310142 0.921212105487493 -44.1221837310142 0.387550441009858 45.7865535655659 
! Gamma         0                0                0                0                
! Port Impedance         50               0                50               0                
1.76                           0.390716100958522 45.3312180651337 0.919873665920122 -44.5781766463344 0.919873665920122 -44.5781766463344 0.390716100958523 45.3312180651337 
! Gamma         0                0                0                0                
! Port Impedance         50               0                50               0                
1.78                           0.393847924007521 44.8771965552866 0.918536928896154 -45.0328467216655 0.918536928896154 -45.0328467216655 0.393847924007521 44.8771965552866 
! Gamma         0                0                0                0                
! Port Impedance         50               0                50               0                
1.8                            0.396945954633706 44.424485535642  0.917202227801657 -45.4861977296585 0.917202227801657 -45.4861977296585 0.396945954633706 44.424485535642  
! Gamma         0                0                0                0                
! Port Impedance         50               0                50               0                
1.82                           0.400010242966635 43.9730811774138 0.91586989115588 -45.9382337608799 0.915869891155881 -45.9382337608799 0.400010242966635 43.9730811774138 
! Gamma         0                0                0                0                
! Port Impedance         50               0                50               0                
1.84                           0.403040844588886 43.5229793306067 0.914540242578638 -46.3889592171429 0.914540242578638 -46.3889592171429 0.403040844588886 43.5229793306067 
! Gamma         0                0                0                0                
! Port Impedance         50               0                50               0                
1.86                           0.406037820338013 43.0741755311684 0.913213600762732 -46.8383788048505 0.913213600762732 -46.8383788048505 0.406037820338013 43.0741755311684 
! Gamma         0                0                0                0                
! Port Impedance         50               0                50               0                
1.88                           0.409001236110297 42.6266650080924 0.911890279451258 -47.2864975283573 0.911890279451258 -47.2864975283573 0.409001236110297 42.6266650080924 
! Gamma         0                0                0                0                
! Port Impedance         50               0                50               0                
1.9                            0.41193116266642 42.1804426904694 0.910570587419645 -47.7333206833563 0.910570587419645 -47.7333206833563 0.41193116266642 42.1804426904693 
! Gamma         0                0                0                0                
! Port Impedance         50               0                50               0                
1.92                           0.414827675439203 41.7355032144834 0.90925482846226 -48.1788538502948 0.90925482846226 -48.1788538502948 0.414827675439203 41.7355032144834 
! Gamma         0                0                0                0                
! Port Impedance         50               0                50               0                
1.94                           0.417690854343514 41.2918409303486 0.907943301383426 -48.6231028878268 0.907943301383426 -48.6231028878268 0.417690854343514 41.2918409303486 
! Gamma         0                0                0                0                
! Port Impedance         50               0                50               0                
1.96                           0.420520783588478 40.8494499091837 0.906636299992693 -49.0660739263048 0.906636299992693 -49.0660739263048 0.420520783588478 40.8494499091837 
! Gamma         0                0                0                0                
! Port Impedance         50               0                50               0                
1.98                           0.423317551492069 40.4083239498196 0.905334113104204 -49.5077733613178 0.905334113104204 -49.5077733613178 0.423317551492069 40.4083239498195 
! Gamma         0                0                0                0                
! Port Impedance         50               0                50               0                
2                              0.426081250298202 39.9684565855397 0.904037024540001 -49.9482078472785 0.904037024540001 -49.9482078472785 0.426081250298202 39.9684565855397 
! Gamma         0                0                0                0                
! Port Impedance         50               0                50               0                
2.02                           0.428811975996397 39.5298410907463 0.902745313137112 -50.3873842910648 0.902745313137112 -50.3873842910648 0.428811975996396 39.5298410907463 
! Gamma         0                0                0                0                
! Port Impedance         50               0                50               0                
2.04                           0.431509828144101 39.092470487553  0.901459252758266 -50.8253098457198 0.901459252758266 -50.8253098457198 0.431509828144101 39.092470487553  
! Gamma         0                0                0                0                
! Port Impedance         50               0                50               0                
2.06                           0.434174909691749 38.6563375522987 0.900179112306077 -51.2619919042132 0.900179112306077 -51.2619919042132 0.43417490969175 38.6563375522987 
! Gamma         0                0                0                0                
! Port Impedance         50               0                50               0                
2.08                           0.436807326810611 38.2214348219821 0.898905155740558 -51.6974380932688 0.898905155740557 -51.6974380932688 0.436807326810611 38.2214348219821 
! Gamma         0                0                0                0                
! Port Impedance         50               0                50               0                
2.1                            0.439407188723499 37.7877546006123 0.897637642099796 -52.1316562672608 0.897637642099796 -52.1316562672608 0.439407188723499 37.7877546006123 
! Gamma         0                0                0                0                
! Port Impedance         50               0                50               0                
2.12                           0.441974607538381 37.3552889654752 0.896376825523657 -52.5646545021822 0.896376825523657 -52.5646545021822 0.441974607538381 37.3552889654752 
! Gamma         0                0                0                0                
! Port Impedance         50               0                50               0                
2.14                           0.444509698084954 36.9240297733126 0.895122955280365 -52.9964410896882 0.895122955280365 -52.9964410896882 0.444509698084954 36.9240297733126 
! Gamma         0                0                0                0                
! Port Impedance         50               0                50               0                
2.16                           0.447012577754195 36.4939686664118 0.893876275795811 -53.427024531217 0.893876275795811 -53.427024531217 0.447012577754195 36.4939686664118 
! Gamma         0                0                0                0                
! Port Impedance         50               0                50               0                
2.18                           0.449483366340954 36.0650970786046 0.892637026685457 -53.8564135321916 0.892637026685457 -53.8564135321916 0.449483366340954 36.0650970786046 
! Gamma         0                0                0                0                
! Port Impedance         50               0                50               0                
2.2                            0.451922185889589 35.6374062411737 0.891405442788691 -54.2846169963028 0.891405442788691 -54.2846169963029 0.451922185889589 35.6374062411737 
! Gamma         0                0                0                0                
! Port Impedance         50               0                50               0                
2.22                           0.454329160542684 35.2108871886652 0.890181754205499 -54.7116440198784 0.890181754205499 -54.7116440198784 0.454329160542684 35.2108871886652 
! Gamma         0                0                0                0                
! Port Impedance         50               0                50               0                
2.24                           0.456704416392853 34.7855307646052 0.888966186335317 -55.137503886337 0.888966186335317 -55.137503886337 0.456704416392853 34.7855307646052 
! Gamma         0                0                0                0                
! Port Impedance         50               0                50               0                
2.26                           0.459048081337658 34.3613276271202 0.88775895991794 -55.5622060607317 0.88775895991794 -55.5622060607317 0.459048081337658 34.3613276271202 
! Gamma         0                0                0                0                
! Port Impedance         50               0                50               0                
2.28                           0.461360284937629 33.93826825446   0.88656029107635 -55.9857601843827 0.88656029107635 -55.9857601843827 0.461360284937629 33.93826825446   
! Gamma         0                0                0                0                
! Port Impedance         50               0                50               0                
2.3                            0.463641158277409 33.5163429504217 0.885370391361356 -56.4081760696009 0.885370391361356 -56.4081760696009 0.463641158277409 33.5163429504217 
! Gamma         0                0                0                0                
! Port Impedance         50               0                50               0                
2.32                           0.465890833830004 33.0955418496742 0.884189467797892 -56.8294636945042 0.884189467797892 -56.8294636945042 0.465890833830004 33.0955418496742 
! Gamma         0                0                0                0                
! Port Impedance         50               0                50               0                
2.34                           0.468109445324147 32.6758549229833 0.883017722932903 -57.2496331979272 0.883017722932903 -57.2496331979272 0.468109445324147 32.6758549229833 
! Gamma         0                0                0                0                
! Port Impedance         50               0                50               0                
2.36                           0.470297127614759 32.2572719823355 0.881855354884652 -57.6686948744248 0.881855354884652 -57.6686948744248 0.470297127614759 32.2572719823355 
! Gamma         0                0                0                0                
! Port Impedance         50               0                50               0                
2.38                           0.472454016556493 31.8397826859616 0.880702557393373 -58.0866591693712 0.880702557393373 -58.0866591693712 0.472454016556493 31.8397826859616 
! Gamma         0                0                0                0                
! Port Impedance         50               0                50               0                
2.4                            0.474580248880351 31.4233765432584 0.879559519873152 -58.5035366741545 0.879559519873153 -58.5035366741545 0.474580248880351 31.4233765432584 
! Gamma         0                0                0                0                
! Port Impedance         50               0                50               0                
2.42                           0.476675962073349 31.0080429196099 0.878426427464916 -58.919338121467 0.878426427464916 -58.919338121467 0.476675962073349 31.0080429196099 
! Gamma         0                0                0                0                
! Port Impedance         50               0                50               0                
2.44                           0.478741294261207 30.5937710411055 0.877303461090447 -59.3340743806926 0.877303461090447 -59.3340743806926 0.478741294261207 30.5937710411055 
! Gamma         0                0                0                0                
! Port Impedance         50               0                50               0                
2.46                           0.480776384094048 30.1805499991587 0.876190797507312 -59.7477564533905 0.876190797507312 -59.7477564533905 0.480776384094047 30.1805499991587 
! Gamma         0                0                0                0                
! Port Impedance         50               0                50               0                
2.48                           0.482781370635056 29.7683687550232 0.875088609364614 -60.1603954688757 0.875088609364614 -60.1603954688757 0.482781370635056 29.7683687550232 
! Gamma         0                0                0                0                
! Port Impedance         50               0                50               0                
2.5                            0.484756393252097 29.3572161442084 0.873997065259478 -60.5720026798964 0.873997065259477 -60.5720026798964 0.484756393252098 29.3572161442084 
! Gamma         0                0                0                0                
! Port Impedance         50               0                50               0                
2.52                           0.486701591512233 28.947080880794  0.872916329794158 -60.9825894584082 0.872916329794158 -60.9825894584082 0.486701591512233 28.947080880794  
! Gamma         0                0                0                0                
! Port Impedance         50               0                50               0                
2.54                           0.488617105079117 28.537951561645  0.871846563633728 -61.3921672914442 0.871846563633728 -61.3921672914442 0.488617105079117 28.537951561645  
! Gamma         0                0                0                0                
! Port Impedance         50               0                50               0                
2.56                           0.490503073613235 28.1298166705262 0.870787923564209 -61.8007477770822 0.87078792356421 -61.8007477770822 0.490503073613235 28.1298166705262 
! Gamma         0                0                0                0                
! Port Impedance         50               0                50               0                
2.58                           0.492359636674935 27.7226645821177 0.869740562551114 -62.2083426205068 0.869740562551114 -62.2083426205068 0.492359636674935 27.7226645821177 
! Gamma         0                0                0                0                
! Port Impedance         50               0                50               0                
2.6                            0.494186933630229 27.3164835659323 0.868704629798283 -62.614963630167 0.868704629798283 -62.614963630167 0.494186933630229 27.3164835659323 
! Gamma         0                0                0                0                
! Port Impedance         50               0                50               0                
2.62                           0.495985103559302 26.9112617901348 0.867680270806968 -63.0206227140288 0.867680270806968 -63.0206227140288 0.495985103559303 26.9112617901347 
! Gamma         0                0                0                0                
! Port Impedance         50               0                50               0                
2.64                           0.497754285167713 26.5069873252639 0.866667627435086 -63.4253318759218 0.866667627435085 -63.4253318759218 0.497754285167713 26.5069873252639 
! Gamma         0                0                0                0                
! Port Impedance         50               0                50               0                
2.66                           0.499494616700208 26.1036481478594 0.865666837956555 -63.8291032119782 0.865666837956555 -63.8291032119782 0.499494616700208 26.1036481478595 
! Gamma         0                0                0                0                
! Port Impedance         50               0                50               0                
2.68                           0.50120623585714 25.7012321439926 0.864678037120683 -64.2319489071662 0.864678037120683 -64.2319489071662 0.50120623585714 25.7012321439926 
! Gamma         0                0                0                0                
! Port Impedance         50               0                50               0                
2.7                            0.502889279713419 25.2997271127034 0.863701356211506 -64.6338812319131 0.863701356211506 -64.6338812319131 0.502889279713419 25.2997271127034 
! Gamma         0                0                0                0                
! Port Impedance         50               0                50               0                
2.72                           0.504543884639962 24.8991207693442 0.862736923107047 -65.0349125388206 0.862736923107047 -65.0349125388206 0.504543884639962 24.8991207693441 
! Gamma         0                0                0                0                
! Port Impedance         50               0                50               0                
2.74                           0.506170186227588 24.4994007488313 0.861784862338421 -65.4350552594692 0.861784862338421 -65.4350552594692 0.506170186227587 24.4994007488313 
! Gamma         0                0                0                0                
! Port Impedance         50               0                50               0                
2.76                           0.507768319213312 24.100554608806  0.860845295148741 -65.8343219013116 0.860845295148741 -65.8343219013116 0.507768319213311 24.100554608806  
! Gamma         0                0                0                0                
! Port Impedance         50               0                50               0                
2.78                           0.509338417408998 23.7025698327055 0.859918339551757 -66.232725044654 0.859918339551757 -66.232725044654 0.509338417408998 23.7025698327055 
! Gamma         0                0                0                0                
! Port Impedance         50               0                50               0                
2.8                            0.510880613632307 23.3054338327452 0.859004110390199 -66.6302773397237 0.8590041103902  -66.6302773397237 0.510880613632307 23.3054338327452 
! Gamma         0                0                0                0                
! Port Impedance         50               0                50               0                
2.82                           0.512395039639902 22.9091339528137 0.858102719393761 -67.0269915038227 0.858102719393761 -67.0269915038227 0.512395039639901 22.9091339528137 
! Gamma         0                0                0                0                
! Port Impedance         50               0                50               0                
2.84                           0.513881826062857 22.5136574712821 0.857214275236681 -67.4228803185645 0.85721427523668 -67.4228803185645 0.513881826062857 22.5136574712821 
! Gamma         0                0                0                0                
! Port Impedance         50               0                50               0                
2.86                           0.515341102344231 22.1189916037282 0.856338883594884 -67.8179566271955 0.856338883594884 -67.8179566271955 0.515341102344231 22.1189916037282 
! Gamma         0                0                0                0                
! Port Impedance         50               0                50               0                
2.88                           0.516772996678731 21.7251235055776 0.855476647202639 -68.2122333319966 0.855476647202639 -68.2122333319966 0.516772996678731 21.7251235055776 
! Gamma         0                0                0                0                
! Port Impedance         50               0                50               0                
2.9                            0.518177635954453 21.3320402746625 0.854627665908688 -68.6057233917667 0.854627665908687 -68.6057233917667 0.518177635954453 21.3320402746625 
! Gamma         0                0                0                0                
! Port Impedance         50               0                50               0                
2.92                           0.519555145696617 20.9397289537001 0.853792036731818 -68.9984398193844 0.853792036731818 -68.9984398193844 0.519555145696617 20.9397289537001 
! Gamma         0                0                0                0                
! Port Impedance         50               0                50               0                
2.94                           0.520905650013272 20.5481765326915 0.852969853915843 -69.390395679448 0.852969853915843 -69.390395679448 0.520905650013272 20.5481765326915 
! Gamma         0                0                0                0                
! Port Impedance         50               0                50               0                
2.96                           0.52222927154291 20.1573699512433 0.852161208983946 -69.7816040859917 0.852161208983946 -69.7816040859917 0.522229271542909 20.1573699512433 
! Gamma         0                0                0                0                
! Port Impedance         50               0                50               0                
2.98                           0.523526131403937 19.7672961008122 0.851366190792369 -70.1720782002777 0.851366190792369 -70.1720782002777 0.523526131403937 19.7672961008122 
! Gamma         0                0                0                0                
! Port Impedance         50               0                50               0                
3                              0.524796349145979 19.3779418268752 0.850584885583417 -70.5618312286604 0.850584885583416 -70.5618312286604 0.524796349145979 19.3779418268752 
! Gamma         0                0                0                0                
! Port Impedance         50               0                50               0                
3.02                           0.526040042702934 18.9892939310263 0.849817377037734 -70.9508764205251 0.849817377037734 -70.9508764205251 0.526040042702934 18.9892939310263 
! Gamma         0                0                0                0                
! Port Impedance         50               0                50               0                
3.04                           0.527257328347766 18.6013391730008 0.849063746325848 -71.3392270662955 0.849063746325848 -71.3392270662955 0.527257328347765 18.6013391730009 
! Gamma         0                0                0                0                
! Port Impedance         50               0                50               0                
3.06                           0.528448320648963 18.2140642726299 0.84832407215894 -71.7268964955119 0.84832407215894 -71.7268964955119 0.528448320648963 18.2140642726299 
! Gamma         0                0                0                0                
! Port Impedance         50               0                50               0                
3.08                           0.529613132428635 17.8274559117253 0.847598430838829 -72.1138980749771 0.847598430838829 -72.1138980749771 0.529613132428635 17.8274559117253 
! Gamma         0                0                0                0                
! Port Impedance         50               0                50               0                
3.1                            0.530751874722189 17.4415007358977 0.846886896307139 -72.5002452069687 0.846886896307139 -72.5002452069687 0.530751874722189 17.4415007358977 
! Gamma         0                0                0                0                
! Port Impedance         50               0                50               0                
3.12                           0.531864656739554 17.0561853563077 0.846189540193635 -72.8859513275163 0.846189540193635 -72.8859513275163 0.531864656739554 17.0561853563077 
! Gamma         0                0                0                0                
! Port Impedance         50               0                50               0                
3.14                           0.532951585827899 16.6714963513539 0.845506431863712 -73.2710299047432 0.845506431863712 -73.2710299047432 0.532951585827898 16.6714963513539 
! Gamma         0                0                0                0                
! Port Impedance         50               0                50               0                
3.16                           0.534012767435805 16.2874202682964 0.84483763846501 -73.655494437269 0.84483763846501 -73.655494437269 0.534012767435805 16.2874202682964 
! Gamma         0                0                0                0                
! Port Impedance         50               0                50               0                
3.18                           0.535048305078858 15.9039436248204 0.844183224973148 -74.039358452674 0.844183224973148 -74.039358452674 0.535048305078859 15.9039436248204 
! Gamma         0                0                0                0                
! Port Impedance         50               0                50               0                
3.2                            0.536058300306605 15.5210529105387 0.843543254236552 -74.4226355060222 0.843543254236552 -74.4226355060222 0.536058300306605 15.5210529105387 
! Gamma         0                0                0                0                
! Port Impedance         50               0                50               0                
3.22                           0.537042852670845 15.138734588436  0.842917787020373 -74.8053391784421 0.842917787020373 -74.8053391784421 0.537042852670845 15.1387345884361 
! Gamma         0                0                0                0                
! Port Impedance         50               0                50               0                
3.24                           0.538002059695209 14.7569750962572 0.842306882049476 -75.187483075764 0.842306882049476 -75.187483075764 0.538002059695208 14.7569750962573 
! Gamma         0                0                0                0                
! Port Impedance         50               0                50               0                
3.26                           0.538936016845999 14.3757608478387 0.841710596050486 -75.569080827212 0.841710596050486 -75.569080827212 0.538936016845999 14.3757608478387 
! Gamma         0                0                0                0                
! Port Impedance         50               0                50               0                
3.28                           0.539844817504233 13.9950782343868 0.841128983792891 -75.9501460841493 0.841128983792891 -75.9501460841493 0.539844817504233 13.9950782343868 
! Gamma         0                0                0                0                
! Port Impedance         50               0                50               0                
3.3                            0.540728552938875 13.6149136257036 0.840562098129171 -76.3306925188754 0.840562098129171 -76.3306925188754 0.540728552938875 13.6149136257036 
! Gamma         0                0                0                0                
! Port Impedance         50               0                50               0                
3.32                           0.541587312281196 13.2352533713615 0.840009990033969 -76.7107338234742 0.840009990033969 -76.7107338234742 0.541587312281196 13.2352533713615 
! Gamma         0                0                0                0                
! Port Impedance         50               0                50               0                
3.34                           0.542421182500256 12.8560838018284 0.839472708642272 -77.09028370871  0.839472708642272 -77.09028370871  0.542421182500256 12.8560838018284 
! Gamma         0                0                0                0                
! Port Impedance         50               0                50               0                
3.36                           0.543230248379437 12.4773912295449 0.838950301286611 -77.4693559029724 0.838950301286611 -77.4693559029724 0.543230248379437 12.4773912295449 
! Gamma         0                0                0                0                
! Port Impedance         50               0                50               0                
3.38                           0.544014592494036 12.0991619499552 0.838442813533265 -77.8479641512661 0.838442813533265 -77.8479641512661 0.544014592494037 12.0991619499552 
! Gamma         0                0                0                0                
! Port Impedance         50               0                50               0                
3.4                            0.544774295189842 11.7213822424921 0.837950289217462 -78.2261222142465 0.837950289217462 -78.2261222142465 0.544774295189843 11.7213822424921 
! Gamma         0                0                0                0                
! Port Impedance         50               0                50               0                
3.42                           0.545509434562701 11.3440383715191 0.837472770477574 -78.6038438672976 0.837472770477573 -78.6038438672976 0.545509434562701 11.3440383715191 
! Gamma         0                0                0                0                
! Port Impedance         50               0                50               0                
3.44                           0.546220086439014 10.96711658723   0.837010297788297 -78.9811428996522 0.837010297788297 -78.9811428996522 0.546220086439014 10.96711658723   
! Gamma         0                0                0                0                
! Port Impedance         50               0                50               0                
3.46                           0.546906324357156 10.5906031265078 0.836562909992822 -79.3580331135528 0.836562909992822 -79.3580331135528 0.546906324357156 10.5906031265078 
! Gamma         0                0                0                0                
! Port Impedance         50               0                50               0                
3.48                           0.547568219549769 10.2144842137438 0.836130644333974 -79.7345283234509 0.836130644333974 -79.7345283234509 0.547568219549769 10.2144842137439 
! Gamma         0                0                0                0                
! Port Impedance         50               0                50               0                
3.5                            0.548205840926923 9.83874606161936 0.835713536484329 -80.1106423552445 0.835713536484329 -80.1106423552445 0.548205840926922 9.83874606161936 
! Gamma         0                0                0                0                
! Port Impedance         50               0                50               0                
3.52                           0.548819255060087 9.46337487185053 0.835311620575309 -80.4863890455516 0.835311620575308 -80.4863890455516 0.548819255060087 9.46337487185052 
! Gamma         0                0                0                0                
! Port Impedance         50               0                50               0                
3.54                           0.549408526166928 9.08835683589794 0.834924929225233 -80.8617822410186 0.834924929225233 -80.8617822410186 0.549408526166928 9.08835683589794 
! Gamma         0                0                0                0                
! Port Impedance         50               0                50               0                
3.56                           0.549973716096862 8.7136781356427  0.834553493566347 -81.2368357976625 0.834553493566347 -81.2368357976625 0.549973716096862 8.71367813564269 
! Gamma         0                0                0                0                
! Port Impedance         50               0                50               0                
3.58                           0.550514884317377 8.33932494402986 0.834197343270805 -81.611563580245 0.834197343270805 -81.611563580245 0.550514884317377 8.33932494402986 
! Gamma         0                0                0                0                
! Port Impedance         50               0                50               0                
3.6                            0.551032087901074 7.96528342568089 0.833856506575623 -81.9859794616774 0.833856506575623 -81.9859794616774 0.551032087901074 7.96528342568089 
! Gamma         0                0                0                0                
! Port Impedance         50               0                50               0                
3.62                           0.551525381513429 7.59153973747648 0.833531010306582 -82.3600973224553 0.833531010306582 -82.3600973224553 0.551525381513429 7.59153973747649 
! Gamma         0                0                0                0                
! Port Impedance         50               0                50               0                
3.64                           0.551994817401227 7.21808002911098 0.833220879901097 -82.7339310501209 0.833220879901098 -82.7339310501209 0.551994817401227 7.21808002911098 
! Gamma         0                0                0                0                
! Port Impedance         50               0                50               0                
3.66                           0.552440445381672 6.84489044361984 0.832926139430044 -83.1074945387531 0.832926139430044 -83.1074945387531 0.552440445381672 6.84489044361984 
! Gamma         0                0                0                0                
! Port Impedance         50               0                50               0                
3.68                           0.552862312832142 6.47195711788147 0.832646811618534 -83.4808016884817 0.832646811618534 -83.4808016884817 0.552862312832143 6.47195711788147 
! Gamma         0                0                0                0                
! Port Impedance         50               0                50               0                
3.7                            0.553260464680573 6.09926618309451 0.832382917865655 -83.8538664050274 0.832382917865655 -83.8538664050274 0.553260464680573 6.0992661830945  
! Gamma         0                0                0                0                
! Port Impedance         50               0                50               0                
3.72                           0.553634943396451 5.72680376523245 0.832134478263159 -84.2267025992634 0.832134478263159 -84.2267025992634 0.553634943396451 5.72680376523245 
! Gamma         0                0                0                0                
! Port Impedance         50               0                50               0                
3.74                           0.5539857889824  5.35455598547629 0.831901511613111 -84.5993241867994 0.831901511613111 -84.5993241867994 0.5539857889824  5.35455598547628 
! Gamma         0                0                0                0                
! Port Impedance         50               0                50               0                
3.76                           0.554313038966358 4.98250896062674 0.831684035444486 -84.9717450875855 0.831684035444487 -84.9717450875855 0.554313038966358 4.98250896062674 
! Gamma         0                0                0                0                
! Port Impedance         50               0                50               0                
3.78                           0.554616728394298 4.61064880349755 0.831482066028727 -85.3439792255357 0.831482066028726 -85.3439792255357 0.554616728394298 4.61064880349755 
! Gamma         0                0                0                0                
! Port Impedance         50               0                50               0                
3.8                            0.554896889823518 4.23896162329075 0.831295618394243 -85.7160405281683 0.831295618394243 -85.7160405281683 0.554896889823518 4.23896162329075 
! Gamma         0                0                0                0                
! Port Impedance         50               0                50               0                
3.82                           0.555153553316462 3.86743352595554 0.831124706339888 -86.0879429262637 0.831124706339888 -86.0879429262637 0.555153553316462 3.86743352595554 
! Gamma         0                0                0                0                
! Port Impedance         50               0                50               0                
3.84                           0.55538674643506 3.49605061453182 0.83096934244736 -86.4597003535369 0.83096934244736 -86.4597003535369 0.55538674643506 3.49605061453182 
! Gamma         0                0                0                0                
! Port Impedance         50               0                50               0                
3.86                           0.5555964942356  3.12479898947961 0.830829538092579 -86.8313267463244 0.83082953809258 -86.8313267463244 0.555596494235601 3.12479898947961 
! Gamma         0                0                0                0                
! Port Impedance         50               0                50               0                
3.88                           0.555782819264087 2.7536647489961  0.830705303456015 -87.2028360432834 0.830705303456014 -87.2028360432834 0.555782819264087 2.75366474899609 
! Gamma         0                0                0                0                
! Port Impedance         50               0                50               0                
3.9                            0.555945741552107 2.38263398932076 0.830596647531953 -87.5742421851029 0.830596647531953 -87.5742421851029 0.555945741552107 2.38263398932076 
! Gamma         0                0                0                0                
! Port Impedance         50               0                50               0                
3.92                           0.556085278613181 2.01169280503052 0.830503578136742 -87.9455591142248 0.830503578136742 -87.9455591142248 0.556085278613181 2.01169280503052 
! Gamma         0                0                0                0                
! Port Impedance         50               0                50               0                
3.94                           0.556201445439594 1.64082728932599 0.83042610191597 -88.3168007745742 0.83042610191597 -88.3168007745742 0.556201445439595 1.64082728932599 
! Gamma         0                0                0                0                
! Port Impedance         50               0                50               0                
3.96                           0.556294254499702 1.27002353430987 0.830364224350615 -88.6879811112975 0.830364224350615 -88.6879811112975 0.556294254499702 1.27002353430987 
! Gamma         0                0                0                0                
! Port Impedance         50               0                50               0                
3.98                           0.556363715735704 0.899267631258812 0.830317949762135 -89.0591140705068 0.830317949762135 -89.0591140705068 0.556363715735704 0.899267631258812 
! Gamma         0                0                0                0                
! Port Impedance         50               0                50               0                
4                              0.556409836561883 0.528545670890409 0.830287281316526 -89.43021359903  0.830287281316527 -89.43021359903  0.556409836561883 0.528545670890409 
! Gamma         0                0                0                0                
! Port Impedance         50               0                50               0                
4.02                           0.556432621863308 0.157843743625703 0.830272221027328 -89.8012936441647 0.830272221027327 -89.8012936441647 0.556432621863309 0.157843743625703 
! Gamma         0                0                0                0                
! Port Impedance         50               0                50               0                
4.04                           0.556432073994988 -0.212852060150603 0.830272769757585 -90.1723681534353 0.830272769757585 -90.1723681534353 0.556432073994988 -0.212852060150604 
! Gamma         0                0                0                0                
! Port Impedance         50               0                50               0                
4.06                           0.55640819278149 -0.583555649831665 0.830288927220769 -90.5434510743512 0.83028892722077 -90.5434510743512 0.55640819278149 -0.583555649831665 
! Gamma         0                0                0                0                
! Port Impedance         50               0                50               0                
4.08                           0.556360975517008 -0.9542809343302 0.830320691980651 -90.9145563541662 0.830320691980651 -90.9145563541662 0.556360975517008 -0.954280934330199 
! Gamma         0                0                0                0                
! Port Impedance         50               0                50               0                
4.1                            0.55629041696589 -1.32504182181929 0.830368061450129 -91.2856979396366 0.83036806145013 -91.2856979396366 0.55629041696589 -1.32504182181929 
! Gamma         0                0                0                0                
! Port Impedance         50               0                50               0                
4.12                           0.556196509363623 -1.69585221947087 0.830431031889015 -91.6568897767773 0.830431031889015 -91.6568897767773 0.556196509363623 -1.69585221947087 
! Gamma         0                0                0                0                
! Port Impedance         50               0                50               0                
4.14                           0.55607924241827 -2.06672603319066 0.830509598400774 -92.0281458106149 0.830509598400774 -92.0281458106149 0.55607924241827 -2.06672603319066 
! Gamma         0                0                0                0                
! Port Impedance         50               0                50               0                
4.16                           0.555938603312382 -2.4376771673487 0.830603754928223 -92.3994799849361 0.830603754928223 -92.3994799849361 0.555938603312381 -2.4376771673487 
! Gamma         0                0                0                0                
! Port Impedance         50               0                50               0                
4.18                           0.555774576705356 -2.80871952450371 0.830713494248178 -92.7709062420305 0.830713494248178 -92.7709062420305 0.555774576705356 -2.80871952450371 
! Gamma         0                0                0                0                
! Port Impedance         50               0                50               0                
4.2                            0.555587144736287 -3.17986700512009 0.830838807965063 -93.142438522427 0.830838807965063 -93.142438522427 0.555587144736287 -3.17986700512009 
! Gamma         0                0                0                0                
! Port Impedance         50               0                50               0                
4.22                           0.555376287027274 -3.55113350727692 0.830979686503471 -93.5140907646205 0.830979686503471 -93.5140907646205 0.555376287027274 -3.55113350727692 
! Gamma         0                0                0                0                
! Port Impedance         50               0                50               0                
4.24                           0.555141980687219 -3.92253292636686 0.831136119099679 -93.8858769047915 0.831136119099679 -93.8858769047915 0.555141980687218 -3.92253292636686 
! Gamma         0                0                0                0                
! Port Impedance         50               0                50               0                
4.26                           0.554884200316114 -4.29407915478423 0.831308093792121 -94.2578108765132 0.831308093792121 -94.2578108765132 0.554884200316114 -4.29407915478423 
! Gamma         0                0                0                0                
! Port Impedance         50               0                50               0                
4.28                           0.55460291800983 -4.66578608160088 0.831495597410816 -94.6299066104472 0.831495597410816 -94.6299066104472 0.55460291800983 -4.66578608160088 
! Gamma         0                0                0                0                
! Port Impedance         50               0                50               0                
4.3                            0.554298103365401 -5.03766759222852 0.831698615565743 -95.0021780340269 0.831698615565743 -95.0021780340269 0.554298103365401 -5.03766759222852 
! Gamma         0                0                0                0                
! Port Impedance         50               0                50               0                
4.32                           0.553969723486842 -5.40973756806634 0.831917132634183 -95.3746390711256 0.831917132634183 -95.3746390711256 0.553969723486843 -5.40973756806634 
! Gamma         0                0                0                0                
! Port Impedance         50               0                50               0                
4.34                           0.553617742991482 -5.78200988613249 0.832151131747004 -95.7473036417092 0.832151131747004 -95.7473036417092 0.553617742991482 -5.7820098861325 
! Gamma         0                0                0                0                
! Port Impedance         50               0                50               0                
4.36                           0.553242124016843 -6.15449841867838 0.83240059477391 -96.1201856614724 0.83240059477391 -96.1201856614724 0.553242124016843 -6.15449841867838 
! Gamma         0                0                0                0                
! Port Impedance         50               0                50               0                
4.38                           0.552842826228075 -6.52721703278413 0.832665502307638 -96.4932990414565 0.832665502307638 -96.4932990414565 0.552842826228075 -6.52721703278413 
! Gamma         0                0                0                0                
! Port Impedance         50               0                50               0                
4.4                            0.552419806825956 -6.90017958993434 0.832945833647111 -96.8666576876474 0.832945833647112 -96.8666576876474 0.552419806825955 -6.90017958993434 
! Gamma         0                0                0                0                
! Port Impedance         50               0                50               0                
4.42                           0.551973020555472 -7.27339994557251 0.833241566779554 -97.2402755005538 0.833241566779554 -97.2402755005538 0.551973020555472 -7.27339994557251 
! Gamma         0                0                0                0                
! Port Impedance         50               0                50               0                
4.44                           0.551502419715001 -7.64689194863288 0.83355267836155 -97.6141663747626 0.833552678361551 -97.6141663747626 0.551502419715001 -7.64689194863288 
! Gamma         0                0                0                0                
! Port Impedance         50               0                50               0                
4.46                           0.551007954166108 -8.0206694410485 0.833879143699071 -97.9883441984714 0.833879143699071 -97.9883441984714 0.551007954166108 -8.0206694410485 
! Gamma         0                0                0                0                
! Port Impedance         50               0                50               0                
4.48                           0.550489571343975 -8.39474625723403 0.834220936726447 -98.3628228529964 0.834220936726447 -98.3628228529964 0.550489571343975 -8.39474625723403 
! Gamma         0                0                0                0                
! Port Impedance         50               0                50               0                
4.5                            0.549947216268478 -8.76913622354208 0.834578029984311 -98.737616212254 0.834578029984311 -98.737616212254 0.549947216268477 -8.76913622354209 
! Gamma         0                0                0                0                
! Port Impedance         50               0                50               0                
4.52                           0.549380831555941 -9.14385315769166 0.834950394596487 -99.1127381422162 0.834950394596487 -99.1127381422162 0.549380831555941 -9.14385315769166 
! Gamma         0                0                0                0                
! Port Impedance         50               0                50               0                
4.54                           0.548790357431578 -9.51891086816724 0.835338000245848 -99.4882025003364 0.835338000245847 -99.4882025003364 0.548790357431578 -9.51891086816723 
! Gamma         0                0                0                0                
! Port Impedance         50               0                50               0                
4.56                           0.548175731742651 -9.89432315358746 0.835740815149129 -99.8640231349456 0.835740815149129 -99.8640231349456 0.548175731742651 -9.89432315358746 
! Gamma         0                0                0                0                
! Port Impedance         50               0                50               0                
4.58                           0.547536889972356 -10.2701038020416 0.836158806030712 -100.240213884618 0.836158806030712 -100.240213884618 0.547536889972356 -10.2701038020416 
! Gamma         0                0                0                0                
! Port Impedance         50               0                50               0                
4.6                            0.546873765254477 -10.646266590393 0.836591938095366 -100.616788577503 0.836591938095366 -100.616788577503 0.546873765254477 -10.646266590393 
! Gamma         0                0                0                0                
! Port Impedance         50               0                50               0                
4.62                           0.546186288388818 -11.0228252835473 0.837040174999958 -100.993761030625 0.837040174999959 -100.993761030625 0.546186288388818 -11.0228252835473 
! Gamma         0                0                0                0                
! Port Impedance         50               0                50               0                
4.64                           0.545474387857447 -11.3997936336848 0.837503478824145 -101.371145049146 0.837503478824145 -101.371145049146 0.545474387857447 -11.3997936336848 
! Gamma         0                0                0                0                
! Port Impedance         50               0                50               0                
4.66                           0.544737989841768 -11.7771853794553 0.837981810040018 -101.748954425591 0.837981810040018 -101.748954425591 0.544737989841768 -11.7771853794553 
! Gamma         0                0                0                0                
! Port Impedance         50               0                50               0                
4.68                           0.543977018240463 -12.1550142451337 0.838475127480746 -102.12720293904 0.838475127480746 -102.12720293904 0.543977018240463 -12.1550142451337 
! Gamma         0                0                0                0                
! Port Impedance         50               0                50               0                
4.7                            0.543191394688318 -12.533293939735 0.838983388308186 -102.505904354274 0.838983388308186 -102.505904354274 0.543191394688318 -12.533293939735 
! Gamma         0                0                0                0                
! Port Impedance         50               0                50               0                
4.72                           0.542381038575974 -12.9120381560882 0.839506547979482 -102.885072420885 0.839506547979482 -102.885072420885 0.542381038575974 -12.9120381560882 
! Gamma         0                0                0                0                
! Port Impedance         50               0                50               0                
4.74                           0.54154586707062 -13.2912605698657 0.84004456021266 -103.264720872344 0.84004456021266 -103.264720872344 0.54154586707062 -13.2912605698657 
! Gamma         0                0                0                0                
! Port Impedance         50               0                50               0                
4.76                           0.540685795137676 -13.6709748385687 0.840597376951211 -103.64486342502 0.840597376951212 -103.64486342502 0.540685795137676 -13.6709748385687 
! Gamma         0                0                0                0                
! Port Impedance         50               0                50               0                
4.78                           0.539800735563475 -14.0511946004664 0.841164948327684 -104.025513777159 0.841164948327684 -104.025513777159 0.539800735563475 -14.0511946004664 
! Gamma         0                0                0                0                
! Port Impedance         50               0                50               0                
4.8                            0.538890598979002 -14.4319334734864 0.841747222626278 -104.406685607815 0.841747222626278 -104.406685607815 0.538890598979002 -14.4319334734864 
! Gamma         0                0                0                0                
! Port Impedance         50               0                50               0                
4.82                           0.537955293884708 -14.8132050540569 0.842344146244462 -104.788392575733 0.842344146244462 -104.788392575733 0.537955293884708 -14.8132050540569 
! Gamma         0                0                0                0                
! Port Impedance         50               0                50               0                
4.84                           0.536994726676434 -15.1950229158978 0.842955663653609 -105.170648318186 0.842955663653609 -105.170648318186 0.536994726676434 -15.1950229158978 
! Gamma         0                0                0                0                
! Port Impedance         50               0                50               0                
4.86                           0.536008801672488 -15.5774006087592 0.843581717358673 -105.55346644975 0.843581717358673 -105.55346644975 0.536008801672489 -15.5774006087592 
! Gamma         0                0                0                0                
! Port Impedance         50               0                50               0                
4.88                           0.534997421141908 -15.9603516571063 0.8442222478569  -105.936860561041 0.8442222478569  -105.936860561041 0.534997421141908 -15.9603516571063 
! Gamma         0                0                0                0                
! Port Impedance         50               0                50               0                
4.9                            0.533960485333943 -16.3438895587488 0.844877193595596 -106.320844217392 0.844877193595597 -106.320844217392 0.533960485333943 -16.3438895587488 
! Gamma         0                0                0                0                
! Port Impedance         50               0                50               0                
4.92                           0.532897892508802 -16.7280277834138 0.845546490928968 -106.705430957468 0.845546490928968 -106.705430957468 0.532897892508802 -16.7280277834138 
! Gamma         0                0                0                0                
! Port Impedance         50               0                50               0                
4.94                           0.531809538969696 -17.1127797712601 0.846230074074025 -107.09063429184 0.846230074074026 -107.09063429184 0.531809538969696 -17.1127797712601 
! Gamma         0                0                0                0                
! Port Impedance         50               0                50               0                
4.96                           0.530695319096229 -17.4981589313317 0.84692787506559 -107.476467701484 0.84692787506559 -107.476467701484 0.530695319096229 -17.4981589313318 
! Gamma         0                0                0                0                
! Port Impedance         50               0                50               0                
4.98                           0.529555125379159 -17.8841786399515 0.847639823710399 -107.862944636231 0.847639823710398 -107.862944636231 0.52955512537916 -17.8841786399515 
! Gamma         0                0                0                0                
! Port Impedance         50               0                50               0                
5                              0.528388848456594 -18.2708522390498 0.848365847540336 -108.250078513157 0.848365847540336 -108.250078513157 0.528388848456594 -18.2708522390498 
! Gamma         0                0                0                0                
! Port Impedance         50               0                50               0                
5.02                           0.527196377151637 -18.6581930344301 0.849105871764799 -108.637882714897 0.849105871764799 -108.637882714897 0.527196377151637 -18.6581930344301 
! Gamma         0                0                0                0                
! Port Impedance         50               0                50               0                
5.04                           0.525977598511558 -19.0462142939673 0.849859819222216 -109.026370587916 0.849859819222216 -109.026370587916 0.525977598511558 -19.0462142939673 
! Gamma         0                0                0                0                
! Port Impedance         50               0                50               0                
5.06                           0.524732397848499 -19.4349292457387 0.850627610330751 -109.415555440693 0.850627610330751 -109.415555440693 0.524732397848499 -19.4349292457387 
! Gamma         0                0                0                0                
! Port Impedance         50               0                50               0                
5.08                           0.523460658781786 -19.8243510760854 0.851409163038188 -109.805450541855 0.851409163038188 -109.805450541855 0.523460658781786 -19.8243510760854 
! Gamma         0                0                0                0                
! Port Impedance         50               0                50               0                
5.1                            0.522162263281882 -20.2144929276031 0.852204392771045 -110.19606911823 0.852204392771045 -110.19606911823 0.522162263281882 -20.2144929276031 
! Gamma         0                0                0                0                
! Port Impedance         50               0                50               0                
5.12                           0.520837091716017 -20.6053678970602 0.853013212382927 -110.587424352843 0.853013212382927 -110.587424352843 0.520837091716017 -20.6053678970602 
! Gamma         0                0                0                0                
! Port Impedance         50               0                50               0                
5.14                           0.519485022895565 -20.9969890332414 0.853835532102137 -110.979529382825 0.853835532102137 -110.979529382825 0.519485022895565 -20.9969890332414 
! Gamma         0                0                0                0                
! Port Impedance         50               0                50               0                
5.16                           0.518105934125186 -21.3893693347166 0.85467125947859 -111.372397297267 0.85467125947859 -111.372397297267 0.518105934125187 -21.3893693347166 
! Gamma         0                0                0                0                
! Port Impedance         50               0                50               0                
5.18                           0.51669970125381 -21.7825217475318 0.85552029933004 -111.766041134981 0.85552029933004 -111.766041134981 0.516699701253811 -21.7825217475318 
! Gamma         0                0                0                0                
! Port Impedance         50               0                50               0                
5.2                            0.515266198727483 -22.1764591628218 0.856382553687661 -112.160473882206 0.85638255368766 -112.160473882206 0.515266198727483 -22.1764591628218 
! Gamma         0                0                0                0                
! Port Impedance         50               0                50               0                
5.22                           0.513805299644138 -22.5711944143422 0.857257921741009 -112.555708470217 0.857257921741009 -112.555708470217 0.513805299644139 -22.5711944143422 
! Gamma         0                0                0                0                
! Port Impedance         50               0                50               0                
5.24                           0.51231687581035 -22.9667402759202 0.858146299782402 -112.951757772873 0.858146299782402 -112.951757772873 0.51231687581035 -22.9667402759202 
! Gamma         0                0                0                0                
! Port Impedance         50               0                50               0                
5.26                           0.51080079780009 -23.3631094588214 0.859047581150746 -113.348634604071 0.859047581150747 -113.348634604071 0.51080079780009 -23.3631094588214 
! Gamma         0                0                0                0                
! Port Impedance         50               0                50               0                
5.28                           0.509256935015565 -23.7603146090324 0.859961656174856 -113.74635171513 0.859961656174856 -113.74635171513 0.509256935015565 -23.7603146090324 
! Gamma         0                0                0                0                
! Port Impedance         50               0                50               0                
5.3                            0.507685155750168 -24.1583683044566 0.860888412116295 -114.144921792091 0.860888412116295 -114.144921792091 0.507685155750169 -24.1583683044566 
! Gamma         0                0                0                0                
! Port Impedance         50               0                50               0                
5.32                           0.506085327253597 -24.557283052023 0.861827733111799 -114.544357452923 0.861827733111798 -114.544357452923 0.506085327253596 -24.557283052023 
! Gamma         0                0                0                0                
! Port Impedance         50               0                50               0                
5.34                           0.504457315799185 -24.9570712847047 0.862779500115297 -114.944671244663 0.862779500115297 -114.944671244663 0.504457315799185 -24.9570712847047 
! Gamma         0                0                0                0                
! Port Impedance         50               0                50               0                
5.36                           0.502800986753507 -25.357745358448 0.863743590839606 -115.345875640453 0.863743590839606 -115.345875640453 0.502800986753507 -25.357745358448 
! Gamma         0                0                0                0                
! Port Impedance         50               0                50               0                
5.38                           0.501116204648288 -25.7593175490086 0.864719879697818 -115.747983036499 0.864719879697818 -115.747983036499 0.501116204648288 -25.7593175490086 
! Gamma         0                0                0                0                
! Port Impedance         50               0                50               0                
5.4                            0.499402833254678 -26.1618000486946 0.865708237744462 -116.151005748942 0.865708237744462 -116.151005748942 0.499402833254677 -26.1618000486946 
! Gamma         0                0                0                0                
! Port Impedance         50               0                50               0                
5.42                           0.497660735659939 -26.5652049630152 0.866708532616464 -116.554956010635 0.866708532616464 -116.554956010635 0.497660735659939 -26.5652049630152 
! Gamma         0                0                0                0                
! Port Impedance         50               0                50               0                
5.44                           0.49588977434659 -26.9695443072328 0.867720628473981 -116.959845967834 0.867720628473981 -116.959845967834 0.49588977434659 -26.9695443072328 
! Gamma         0                0                0                0                
! Port Impedance         50               0                50               0                
5.46                           0.494089811274057 -27.3748300028182 0.868744385941158 -117.365687676798 0.868744385941158 -117.365687676798 0.494089811274057 -27.3748300028182 
! Gamma         0                0                0                0                
! Port Impedance         50               0                50               0                
5.48                           0.492260707962871 -27.7810738738066 0.869779662046874 -117.772493100295 0.869779662046874 -117.772493100295 0.49226070796287 -27.7810738738066 
! Gamma         0                0                0                0                
! Port Impedance         50               0                50               0                
5.5                            0.490402325581467 -28.1882876430552 0.870826310165533 -118.180274104016 0.870826310165533 -118.180274104016 0.490402325581467 -28.1882876430553 
! Gamma         0                0                0                0                
! Port Impedance         50               0                50               0                
5.52                           0.488514525035628 -28.5964829283983 0.871884179957974 -118.589042452896 0.871884179957975 -118.589042452896 0.488514525035628 -28.5964829283983 
! Gamma         0                0                0                0                
! Port Impedance         50               0                50               0                
5.54                           0.486597167060609 -29.005671238701 0.87295311731257 -118.998809807338 0.87295311731257 -118.998809807338 0.486597167060609 -29.005671238701 
! Gamma         0                0                0                0                
! Port Impedance         50               0                50               0                
5.56                           0.484650112315988 -29.4158639698105 0.874032964286573 -119.40958771935 0.874032964286573 -119.40958771935 0.484650112315988 -29.4158639698105 
! Gamma         0                0                0                0                
! Port Impedance         50               0                50               0                
5.58                           0.482673221483298 -29.8270724004019 0.875123559047807 -119.821387628573 0.875123559047807 -119.821387628573 0.482673221483298 -29.8270724004019 
! Gamma         0                0                0                0                
! Port Impedance         50               0                50               0                
5.6                            0.480666355366454 -30.2393076877205 0.876224735816755 -120.23422085823 0.876224735816755 -120.23422085823 0.480666355366454 -30.2393076877205 
! Gamma         0                0                0                0                
! Port Impedance         50               0                50               0                
5.62                           0.478629374995037 -30.6525808632165 0.877336324809148 -120.648098610962 0.877336324809148 -120.648098610962 0.478629374995037 -30.6525808632165 
! Gamma         0                0                0                0                
! Port Impedance         50               0                50               0                
5.64                           0.476562141730454 -31.0669028280742 0.878458152179127 -121.063031964579 0.878458152179127 -121.063031964579 0.476562141730453 -31.0669028280742 
! Gamma         0                0                0                0                
! Port Impedance         50               0                50               0                
5.66                           0.474464517375025 -31.4822843486326 0.879590039963062 -121.479031867711 0.879590039963061 -121.479031867711 0.474464517375025 -31.4822843486326 
! Gamma         0                0                0                0                
! Port Impedance         50               0                50               0                
5.68                           0.472336364284012 -31.8987360516983 0.880731806024126 -121.896109135359 0.880731806024126 -121.896109135359 0.472336364284012 -31.8987360516983 
! Gamma         0                0                0                0                
! Port Impedance         50               0                50               0                
5.7                            0.470177545480634 -32.316268419749 0.881883263997721 -122.314274444353 0.881883263997721 -122.314274444353 0.470177545480634 -32.316268419749 
! Gamma         0                0                0                0                
! Port Impedance         50               0                50               0                
5.72                           0.467987924774084 -32.7348917860274 0.883044223237831 -122.733538328712 0.883044223237831 -122.733538328712 0.467987924774084 -32.7348917860274 
! Gamma         0                0                0                0                
! Port Impedance         50               0                50               0                
5.74                           0.465767366880585 -33.154616329525 0.884214488764432 -123.153911174909 0.884214488764432 -123.153911174909 0.465767366880585 -33.1546163295251 
! Gamma         0                0                0                0                
! Port Impedance         50               0                50               0                
5.76                           0.463515737547498 -33.5754520698554 0.885393861212035 -123.575403217032 0.885393861212034 -123.575403217032 0.463515737547499 -33.5754520698554 
! Gamma         0                0                0                0                
! Port Impedance         50               0                50               0                
5.78                           0.461232903680503 -33.9974088620159 0.886582136779485 -123.998024531866 0.886582136779485 -123.998024531866 0.461232903680502 -33.9974088620159 
! Gamma         0                0                0                0                
! Port Impedance         50               0                50               0                
5.8                            0.458918733473867 -34.4204963910385 0.88777910718112 -124.421785033859 0.88777910718112 -124.421785033859 0.458918733473867 -34.4204963910385 
! Gamma         0                0                0                0                
! Port Impedance         50               0                50               0                
5.82                           0.456573096543824 -34.8447241665292 0.8889845595994  -124.846694470012 0.8889845595994  -124.846694470012 0.456573096543824 -34.8447241665293 
! Gamma         0                0                0                0                
! Port Impedance         50               0                50               0                
5.84                           0.454195864065055 -35.2701015170952 0.890198276639119 -125.272762414665 0.890198276639118 -125.272762414665 0.454195864065055 -35.2701015170952 
! Gamma         0                0                0                0                
! Port Impedance         50               0                50               0                
5.86                           0.45178690891029 -35.6966375846601 0.891420036283332 -125.699998264194 0.891420036283332 -125.699998264194 0.45178690891029 -35.6966375846601 
! Gamma         0                0                0                0                
! Port Impedance         50               0                50               0                
5.88                           0.449346105793021 -36.1243413186675 0.892649611851106 -126.128411231618 0.892649611851106 -126.128411231618 0.44934610579302 -36.1243413186675 
! Gamma         0                0                0                0                
! Port Impedance         50               0                50               0                
5.9                            0.446873331413334 -36.5532214701731 0.893886771957222 -126.558010341113 0.893886771957222 -126.558010341113 0.446873331413334 -36.5532214701731 
! Gamma         0                0                0                0                
! Port Impedance         50               0                50               0                
5.92                           0.444368464606845 -36.9832865858239 0.895131280473954 -126.988804422446 0.895131280473954 -126.988804422446 0.444368464606845 -36.9832865858239 
! Gamma         0                0                0                0                
! Port Impedance         50               0                50               0                
5.94                           0.44183138649672 -37.414545001727 0.89638289649507 -127.420802105311 0.89638289649507 -127.420802105311 0.44183138649672 -37.414545001727 
! Gamma         0                0                0                0                
! Port Impedance         50               0                50               0                
5.96                           0.439261980648782 -37.8470048372063 0.897641374302168 -127.854011813587 0.897641374302168 -127.854011813587 0.439261980648782 -37.8470048372063 
! Gamma         0                0                0                0                
! Port Impedance         50               0                50               0                
5.98                           0.436660133229656 -38.2806739884483 0.898906463333494 -128.28844175952 0.898906463333494 -128.28844175952 0.436660133229656 -38.2806739884483 
! Gamma         0                0                0                0                
! Port Impedance         50               0                50               0                
6                              0.434025733167949 -38.7155601220375 0.900177908155381 -128.724099937811 0.900177908155382 -128.724099937811 0.434025733167949 -38.7155601220376 
! Gamma         0                0                0                0                
! Port Impedance         50               0                50               0                
6.02                           0.431358672318405 -39.1516706683815 0.901455448436454 -129.160994119639 0.901455448436453 -129.16099411964 0.431358672318405 -39.1516706683815 
! Gamma         0                0                0                0                
! Port Impedance         50               0                50               0                
6.04                           0.42865884562902 -39.5890128150255 0.902738818924722 -129.599131846603 0.902738818924721 -129.599131846603 0.42865884562902 -39.5890128150255 
! Gamma         0                0                0                0                
! Port Impedance         50               0                50               0                
6.06                           0.425926151311051 -40.0275934998583 0.904027749427745 -130.038520424592 0.904027749427745 -130.038520424592 0.425926151311051 -40.0275934998583 
! Gamma         0                0                0                0                
! Port Impedance         50               0                50               0                
6.08                           0.423160491011876 -40.4674194042089 0.905321964795983 -130.479166917593 0.905321964795983 -130.479166917593 0.423160491011876 -40.4674194042089 
! Gamma         0                0                0                0                
! Port Impedance         50               0                50               0                
6.1                            0.420361769990642 -40.9084969458353 0.906621184909491 -130.921078141423 0.906621184909491 -130.921078141423 0.420361769990642 -40.9084969458353 
! Gamma         0                0                0                0                
! Port Impedance         50               0                50               0                
6.12                           0.417529897296635 -41.3508322718044 0.907925124668129 -131.36426065741 0.907925124668129 -131.36426065741 0.417529897296634 -41.3508322718044 
! Gamma         0                0                0                0                
! Port Impedance         50               0                50               0                
6.14                           0.4146647859503  -41.7944312512653 0.909233493985411 -131.808720766011 0.909233493985411 -131.808720766011 0.4146647859503  -41.7944312512654 
! Gamma         0                0                0                0                
! Port Impedance         50               0                50               0                
6.16                           0.411766353126831 -42.2392994681153 0.91054599778617 -132.254464500375 0.91054599778617 -132.254464500375 0.411766353126831 -42.2392994681153 
! Gamma         0                0                0                0                
! Port Impedance         50               0                50               0                
6.18                           0.40883452034223 -42.6854422135587 0.911862336008177 -132.701497619857 0.911862336008177 -132.701497619857 0.40883452034223 -42.6854422135587 
! Gamma         0                0                0                0                
! Port Impedance         50               0                50               0                
6.2                            0.405869213641761 -43.1328644785603 0.913182203607894 -133.149825603494 0.913182203607894 -133.149825603494 0.405869213641761 -43.1328644785603 
! Gamma         0                0                0                0                
! Port Impedance         50               0                50               0                
6.22                           0.402870363790673 -43.5815709461912 0.914505290570484 -133.599453643431 0.914505290570484 -133.599453643431 0.402870363790673 -43.5815709461912 
! Gamma         0                0                0                0                
! Port Impedance         50               0                50               0                
6.24                           0.399837906467091 -44.0315659838693 0.915831281924273 -134.050386638319 0.915831281924273 -134.050386638319 0.399837906467091 -44.0315659838693 
! Gamma         0                0                0                0                
! Port Impedance         50               0                50               0                
6.26                           0.39677178245695 -44.4828536354927 0.917159857759784 -134.502629186679 0.917159857759784 -134.502629186679 0.39677178245695 -44.4828536354928 
! Gamma         0                0                0                0                
! Port Impedance         50               0                50               0                
6.28                           0.393671937850844 -44.9354376134663 0.918490693253535 -134.956185580246 0.918490693253535 -134.956185580246 0.393671937850844 -44.9354376134663 
! Gamma         0                0                0                0                
! Port Impedance         50               0                50               0                
6.3                            0.390538324242648 -45.38932129062  0.919823458696724 -135.41105979729 0.919823458696724 -135.41105979729 0.390538324242648 -45.38932129062  
! Gamma         0                0                0                0                
! Port Impedance         50               0                50               0                
6.32                           0.38737089892977 -45.8445076920187 0.92115781952898 -135.867255495931 0.92115781952898 -135.867255495931 0.38737089892977 -45.8445076920187 
! Gamma         0                0                0                0                
! Port Impedance         50               0                50               0                
6.34                           0.384169625114867 -46.3009994866617 0.922493436377323 -136.324776007442 0.922493436377324 -136.324776007442 0.384169625114867 -46.3009994866618 
! Gamma         0                0                0                0                
! Port Impedance         50               0                50               0                
6.36                           0.38093447210888 -46.7587989790695 0.923829965100485 -136.783624329555 0.923829965100485 -136.783624329555 0.38093447210888 -46.7587989790695 
! Gamma         0                0                0                0                
! Port Impedance         50               0                50               0                
6.38                           0.377665415535181 -47.2179081007555 0.925167056838737 -137.24380311978 0.925167056838737 -137.24380311978 0.377665415535182 -47.2179081007555 
! Gamma         0                0                0                0                
! Port Impedance         50               0                50               0                
6.4                            0.374362437534676 -47.6783284015802 0.926504358069386 -137.70531468873 0.926504358069386 -137.70531468873 0.374362437534676 -47.6783284015802 
! Gamma         0                0                0                0                
! Port Impedance         50               0                50               0                
6.42                           0.371025526971654 -48.1400610409825 0.927841510668058 -138.168160993473 0.927841510668058 -138.168160993473 0.371025526971654 -48.1400610409825 
! Gamma         0                0                0                0                
! Port Impedance         50               0                50               0                
6.44                           0.367654679640185 -48.6031067790852 0.929178151975934 -138.632343630917 0.929178151975934 -138.632343630917 0.367654679640185 -48.6031067790852 
! Gamma         0                0                0                0                
! Port Impedance         50               0                50               0                
6.46                           0.364249898470848 -49.067465967667 0.930513914873055 -139.097863831226 0.930513914873054 -139.097863831226 0.364249898470848 -49.067465967667 
! Gamma         0                0                0                0                
! Port Impedance         50               0                50               0                
6.48                           0.36081119373757 -49.5331385409955 0.931848427857835 -139.564722451289 0.931848427857835 -139.564722451289 0.36081119373757 -49.5331385409955 
! Gamma         0                0                0                0                
! Port Impedance         50               0                50               0                
6.5                            0.357338583264347 -50.0001240065121 0.933181315132914 -140.032919968241 0.933181315132914 -140.032919968241 0.357338583264347 -50.0001240065121 
! Gamma         0                0                0                0                
! Port Impedance         50               0                50               0                
6.52                           0.353832092631588 -50.4684214353602 0.934512196697459 -140.502456473042 0.934512196697458 -140.502456473042 0.353832092631588 -50.4684214353602 
! Gamma         0                0                0                0                
! Port Impedance         50               0                50               0                
6.54                           0.350291755381862 -50.9380294527436 0.935840688446036 -140.973331664141 0.935840688446036 -140.973331664141 0.350291755381862 -50.9380294527436 
! Gamma         0                0                0                0                
! Port Impedance         50               0                50               0                
6.56                           0.346717613224745 -51.4089462281045 0.937166402274163 -141.445544841209 0.937166402274163 -141.445544841209 0.346717613224746 -51.4089462281044 
! Gamma         0                0                0                0                
! Port Impedance         50               0                50               0                
6.58                           0.343109716240543 -51.8811694651013 0.938488946190635 -141.919094898969 0.938488946190635 -141.919094898969 0.343109716240543 -51.8811694651013 
! Gamma         0                0                0                0                
! Port Impedance         50               0                50               0                
6.6                            0.339468123082567 -52.3546963913739 0.939807924436724 -142.393980321126 0.939807924436724 -142.393980321126 0.339468123082566 -52.3546963913739 
! Gamma         0                0                0                0                
! Port Impedance         50               0                50               0                
6.62                           0.335792901177708 -52.8295237480701 0.941122937612333 -142.870199174405 0.941122937612333 -142.870199174405 0.335792901177708 -52.8295237480701 
! Gamma         0                0                0                0                
! Port Impedance         50               0                50               0                
6.64                           0.332084126924998 -53.3056477791122 0.942433582809191 -143.347749102715 0.942433582809191 -143.347749102715 0.332084126924998 -53.3056477791122 
! Gamma         0                0                0                0                
! Port Impedance         50               0                50               0                
6.66                           0.328341885891851 -53.7830642201757 0.943739453751129 -143.826627321436 0.943739453751129 -143.826627321436 0.32834188589185 -53.7830642201757 
! Gamma         0                0                0                0                
! Port Impedance         50               0                50               0                
6.68                           0.324566273007676 -54.2617682873464 0.945040140941533 -144.306830611852 0.945040140941533 -144.306830611852 0.324566273007676 -54.2617682873464 
! Gamma         0                0                0                0                
! Port Impedance         50               0                50               0                
6.7                            0.32075739275455 -54.7417546654208 0.946335231817985 -144.788355315736 0.946335231817985 -144.788355315736 0.320757392754549 -54.7417546654208 
! Gamma         0                0                0                0                
! Port Impedance         50               0                50               0                
6.72                           0.316915359354595 -55.2230174958057 0.947624310914147 -145.271197330093 0.947624310914146 -145.271197330093 0.316915359354596 -55.2230174958057 
! Gamma         0                0                0                0                
! Port Impedance         50               0                50               0                
6.74                           0.31304029695377 -55.70555036397  0.948906960028906 -145.755352102081 0.948906960028906 -145.755352102081 0.31304029695377 -55.70555036397  
! Gamma         0                0                0                0                
! Port Impedance         50               0                50               0                
6.76                           0.30913233980168 -56.189346286391 0.950182758402793 -146.240814624112 0.950182758402793 -146.240814624112 0.30913233980168 -56.189346286391 
! Gamma         0                0                0                0                
! Port Impedance         50               0                50               0                
6.78                           0.305191632427113 -56.6743976969321 0.951451282901671 -146.727579429151 0.951451282901671 -146.727579429151 0.305191632427113 -56.6743976969322 
! Gamma         0                0                0                0                
! Port Impedance         50               0                50               0                
6.8                            0.301218329808911 -57.1606964325785 0.952712108207682 -147.215640586219 0.952712108207682 -147.215640586219 0.301218329808911 -57.1606964325785 
! Gamma         0                0                0                0                
! Port Impedance         50               0                50               0                
6.82                           0.297212597541836 -57.6482337184435 0.953964807017423 -147.704991696116 0.953964807017423 -147.704991696116 0.297212597541836 -57.6482337184435 
! Gamma         0                0                0                0                
! Port Impedance         50               0                50               0                
6.84                           0.29317461199707 -58.1370001519536 0.955208950247311 -148.195625887368 0.955208950247311 -148.195625887368 0.29317461199707 -58.1370001519536 
! Gamma         0                0                0                0                
! Port Impedance         50               0                50               0                
6.86                           0.289104560476981 -58.6269856860949 0.956444107246073 -148.687535812418 0.956444107246073 -148.687535812418 0.289104560476981 -58.6269856860949 
! Gamma         0                0                0                0                
! Port Impedance         50               0                50               0                
6.88                           0.285002641363794 -59.1181796115971 0.957669846014297 -149.180713644069 0.957669846014297 -149.180713644069 0.285002641363795 -59.1181796115971 
! Gamma         0                0                0                0                
! Port Impedance         50               0                50               0                
6.9                            0.280869064261789 -59.6105705379057 0.958885733430953 -149.675151072182 0.958885733430953 -149.675151072182 0.280869064261789 -59.6105705379057 
! Gamma         0                0                0                0                
! Port Impedance         50               0                50               0                
6.92                           0.276704050132666 -60.1041463727727 0.960091335486779 -150.170839300655 0.960091335486779 -150.170839300655 0.276704050132666 -60.1041463727727 
! Gamma         0                0                0                0                
! Port Impedance         50               0                50               0                
6.94                           0.272507831423706 -60.5988943002715 0.96128621752441 -150.667769044682 0.961286217524409 -150.667769044682 0.272507831423706 -60.5988943002714 
! Gamma         0                0                0                0                
! Port Impedance         50               0                50               0                
6.96                           0.268280652188357 -61.0948007570082 0.962469944485119 -151.165930528311 0.962469944485119 -151.165930528311 0.268280652188357 -61.0948007570083 
! Gamma         0                0                0                0                
! Port Impedance         50               0                50               0                
6.98                           0.264022768198872 -61.5918514062714 0.963642081162016 -151.6653134823  0.963642081162016 -151.6653134823  0.264022768198871 -61.5918514062714 
! Gamma         0                0                0                0                
! Port Impedance         50               0                50               0                
7                              0.259734447050651 -62.0900311098145 0.964802192459522 -152.165907142302 0.964802192459521 -152.165907142302 0.259734447050651 -62.0900311098145 
! Gamma         0                0                0                0                
! Port Impedance         50               0                50               0                
7.02                           0.255415968257911 -62.5893238969249 0.965949843658946 -152.667700247364 0.965949843658946 -152.667700247364 0.255415968257912 -62.5893238969248 
! Gamma         0                0                0                0                
! Port Impedance         50               0                50               0                
7.04                           0.251067623340332 -63.0897129303686 0.967084600689953 -153.170681038776 0.967084600689953 -153.170681038776 0.251067623340332 -63.0897129303687 
! Gamma         0                0                0                0                
! Port Impedance         50               0                50               0                
7.06                           0.24668971590033 -63.5911804687407 0.968206030407689 -153.674837259255 0.968206030407689 -153.674837259255 0.24668971590033 -63.5911804687406 
! Gamma         0                0                0                0                
! Port Impedance         50               0                50               0                
7.08                           0.242282561690619 -64.0937078246636 0.969313700875338 -154.180156152493 0.969313700875338 -154.180156152493 0.242282561690619 -64.0937078246636 
! Gamma         0                0                0                0                
! Port Impedance         50               0                50               0                
7.1                            0.237846488671714 -64.5972753181915 0.97040718165184 -154.686624463074 0.97040718165184 -154.686624463074 0.237846488671714 -64.5972753181916 
! Gamma         0                0                0                0                
! Port Impedance         50               0                50               0                
7.12                           0.233381837059063 -65.1018622246571 0.9714860440845  -155.194228436759 0.9714860440845  -155.194228436759 0.233381837059063 -65.1018622246571 
! Gamma         0                0                0                0                
! Port Impedance         50               0                50               0                
7.14                           0.228888959359476 -65.6074467160698 0.972549861606187 -155.702953821158 0.972549861606187 -155.702953821158 0.228888959359476 -65.6074467160698 
! Gamma         0                0                0                0                
! Port Impedance         50               0                50               0                
7.16                           0.224368220396568 -66.1140057950138 0.973598210036816 -156.2127858668  0.973598210036816 -156.2127858668  0.224368220396568 -66.1140057950138 
! Gamma         0                0                0                0                
! Port Impedance         50               0                50               0                
7.18                           0.219819997324905 -66.6215152197947 0.974630667888781 -156.723709328591 0.974630667888781 -156.723709328591 0.219819997324905 -66.6215152197947 
! Gamma         0                0                0                0                
! Port Impedance         50               0                50               0                
7.2                            0.215244679632588 -67.1299494193589 0.975646816675995 -157.235708467692 0.975646816675994 -157.235708467692 0.215244679632587 -67.1299494193589 
! Gamma         0                0                0                0                
! Port Impedance         50               0                50               0                
7.22                           0.21064266913201 -67.6392813962195 0.976646241226163 -157.748767053805 0.976646241226163 -157.748767053805 0.21064266913201 -67.6392813962194 
! Gamma         0                0                0                0                
! Port Impedance         50               0                50               0                
7.24                           0.206014379938547 -68.1494826152805 0.977628529995938 -158.262868367877 0.977628529995938 -158.262868367877 0.206014379938547 -68.1494826152804 
! Gamma         0                0                0                0                
! Port Impedance         50               0                50               0                
7.26                           0.201360238436949 -68.6605228760261 0.978593275388526 -158.777995205239 0.978593275388526 -158.777995205239 0.201360238436949 -68.6605228760261 
! Gamma         0                0                0                0                
! Port Impedance         50               0                50               0                
7.28                           0.196680683235233 -69.1723701650215 0.979540074073359 -159.29412987917 0.979540074073359 -159.29412987917 0.196680683235233 -69.1723701650215 
! Gamma         0                0                0                0                
! Port Impedance         50               0                50               0                
7.3                            0.191976165105897 -69.6849904850308 0.9804685273074  -159.811254224899 0.9804685273074  -159.811254224899 0.191976165105897 -69.6849904850308 
! Gamma         0                0                0                0                
! Port Impedance         50               0                50               0                
7.32                           0.187247146914283 -70.1983476562518 0.981378241257646 -160.329349604049 0.981378241257646 -160.329349604049 0.187247146914283 -70.1983476562518 
! Gamma         0                0                0                0                
! Port Impedance         50               0                50               0                
7.34                           0.182494103533978 -70.712403084175 0.982268827324375 -160.848396909521 0.982268827324374 -160.848396909521 0.182494103533978 -70.7124030841749 
! Gamma         0                0                0                0                
! Port Impedance         50               0                50               0                
7.36                           0.177717521749125 -71.2271154873128 0.983139902464672 -161.368376570828 0.983139902464672 -161.368376570828 0.177717521749125 -71.2271154873128 
! Gamma         0                0                0                0                
! Port Impedance         50               0                50               0                
7.38                           0.172917900143579 -71.7424405764614 0.983991089515767 -161.889268559878 0.983991089515767 -161.889268559878 0.172917900143579 -71.7424405764614 
! Gamma         0                0                0                0                
! Port Impedance         50               0                50               0                
7.4                            0.168095748976875 -72.2583306751324 0.98482201751769 -162.411052397201 0.984822017517691 -162.411052397201 0.168095748976875 -72.2583306751324 
! Gamma         0                0                0                0                
! Port Impedance         50               0                50               0                
7.42                           0.163251590046988 -72.7747342682136 0.985632322034756 -162.933707158629 0.985632322034756 -162.933707158629 0.163251590046988 -72.7747342682137 
! Gamma         0                0                0                0                
! Port Impedance         50               0                50               0                
7.44                           0.158385956539946 -73.2915954625705 0.986421645475368 -163.457211482429 0.986421645475368 -163.457211482429 0.158385956539946 -73.2915954625706 
! Gamma         0                0                0                0                
! Port Impedance         50               0                50               0                
7.46                           0.153499392866358 -73.8088533389738 0.987189637409649 -163.981543576877 0.987189637409649 -163.981543576877 0.153499392866358 -73.808853338974 
! Gamma         0                0                0                0                
! Port Impedance         50               0                50               0                
7.48                           0.148592454485018 -74.3264411690581 0.987935954884353 -164.506681228287 0.987935954884353 -164.506681228287 0.148592454485018 -74.3264411690579 
! Gamma         0                0                0                0                
! Port Impedance         50               0                50               0                
7.5                            0.143665707713795 -74.8442854635084 0.988660262734573 -165.032601809476 0.988660262734573 -165.032601809476 0.143665707713795 -74.8442854635084 
! Gamma         0                0                0                0                
! Port Impedance         50               0                50               0                
7.52                           0.138719729528079 -75.3623048076939 0.98936223389169 -165.559282288673 0.98936223389169 -165.559282288673 0.138719729528078 -75.3623048076939 
! Gamma         0                0                0                0                
! Port Impedance         50               0                50               0                
7.54                           0.133755107347183 -75.8804084274983 0.990041549687055 -166.086699238865 0.990041549687055 -166.086699238865 0.133755107347183 -75.8804084274984 
! Gamma         0                0                0                0                
! Port Impedance         50               0                50               0                
7.56                           0.128772438809202 -76.3984944098359 0.990697900150877 -166.614828847573 0.990697900150876 -166.614828847573 0.128772438809202 -76.3984944098359 
! Gamma         0                0                0                0                
! Port Impedance         50               0                50               0                
7.58                           0.123772331534987 -76.916447477213 0.991330984305772 -167.143646927049 0.991330984305772 -167.143646927049 0.123772331534987 -76.9164474772129 
! Gamma         0                0                0                0                
! Port Impedance         50               0                50               0                
7.6                            0.118755402882118 -77.4341361807708 0.991940510454482 -167.673128924896 0.991940510454482 -167.673128924896 0.118755402882118 -77.4341361807708 
! Gamma         0                0                0                0                
! Port Impedance         50               0                50               0                
7.62                           0.11372227969001 -77.9514093270667 0.992526196461212 -168.203249935096 0.992526196461212 -168.203249935096 0.11372227969001 -77.9514093270666 
! Gamma         0                0                0                0                
! Port Impedance         50               0                50               0                
7.64                           0.10867359801771 -78.4680913836396 0.993087770026085 -168.733984709436 0.993087770026085 -168.733984709436 0.10867359801771 -78.4680913836394 
! Gamma         0                0                0                0                
! Port Impedance         50               0                50               0                
7.66                           0.103610002876456 -78.9839765066925 0.993624968952209 -169.265307669334 0.993624968952209 -169.265307669334 0.103610002876456 -78.9839765066925 
! Gamma         0                0                0                0                
! Port Impedance         50               0                50               0                
7.68                           0.0985321479599099 -79.4988206844409 0.994137541404838 -169.797192918039 0.994137541404837 -169.797192918039 0.09853214795991 -79.4988206844406 
! Gamma         0                0                0                0                
! Port Impedance         50               0                50               0                
7.7                            0.0934406953760922 -80.0123312652439 0.994625246162163 -170.329614253207 0.994625246162163 -170.329614253207 0.0934406953760924 -80.0123312652438 
! Gamma         0                0                0                0                
! Port Impedance         50               0                50               0                
7.72                           0.0883363153868945 -80.5241527967045 0.995087852857226 -170.86254517983 0.995087852857226 -170.86254517983 0.0883363153868947 -80.5241527967043 
! Gamma         0                0                0                0                
! Port Impedance         50               0                50               0                
7.74                           0.0832196861637728 -81.0338475667491 0.995525142210503 -171.395958923521 0.995525142210503 -171.395958923521 0.0832196861637727 -81.0338475667493 
! Gamma         0                0                0                0                
! Port Impedance         50               0                50               0                
7.76                           0.0780914935726362 -81.540868382492 0.9959369062527  -171.929828444123 0.9959369062527  -171.929828444123 0.0780914935726362 -81.5408683824918 
! Gamma         0                0                0                0                
! Port Impedance         50               0                50               0                
7.78                           0.0729524310081764 -82.0445197197281 0.996322948537324 -172.464126449639 0.996322948537323 -172.464126449639 0.0729524310081765 -82.0445197197281 
! Gamma         0                0                0                0                
! Port Impedance         50               0                50               0                
7.8                            0.0678031993100167 -82.5439010055195 0.996683084342599 -172.998825410471 0.9966830843426  -172.998825410471 0.0678031993100166 -82.5439010055198 
! Gamma         0                0                0                0                
! Port Impedance         50               0                50               0                
7.82                           0.062644506814315 -83.0378216558093 0.997017140862345 -173.533897573944 0.997017140862345 -173.533897573944 0.062644506814315 -83.0378216558092 
! Gamma         0                0                0                0                
! Port Impedance         50               0                50               0                
7.84                           0.0574770696329383 -83.5246699777049 0.997324957385399 -174.069314979099 0.9973249573854  -174.069314979099 0.0574770696329383 -83.5246699777049 
! Gamma         0                0                0                0                
! Port Impedance         50               0                50               0                
7.86                           0.0523016123252603 -84.002203807894 0.997606385463254 -174.605049471749 0.997606385463254 -174.605049471749 0.0523016123252604 -84.0022038078937 
! Gamma         0                0                0                0                
! Port Impedance         50               0                50               0                
7.88                           0.0471188692731001 -84.4672023648034 0.997861289065546 -175.141072719768 0.997861289065546 -175.141072719768 0.0471188692731001 -84.4672023648033 
! Gamma         0                0                0                0                
! Port Impedance         50               0                50               0                
7.9                            0.0419295873772896 -84.9148586645664 0.998089544723087 -175.677356228603 0.998089544723087 -175.677356228603 0.0419295873772896 -84.9148586645662 
! Gamma         0                0                0                0                
! Port Impedance         50               0                50               0                
7.92                           0.0367345313953932 -85.3376549988274 0.998291041658131 -176.213871356987 0.99829104165813 -176.213871356987 0.0367345313953932 -85.337654998828 
! Gamma         0                0                0                0                
! Port Impedance         50               0                50               0                
7.94                           0.0315344949835182 -85.7231236587059 0.998465681901625 -176.750589332838 0.998465681901625 -176.750589332838 0.0315344949835181 -85.7231236587063 
! Gamma         0                0                0                0                
! Port Impedance         50               0                50               0                
7.96                           0.0263303253538204 -86.0489487705174 0.998613380397188 -177.287481269312 0.998613380397188 -177.287481269312 0.0263303253538204 -86.0489487705171 
! Gamma         0                0                0                0                
! Port Impedance         50               0                50               0                
7.98                           0.0211229850736299 -86.2708183826256 0.998734065091596 -177.824518181017 0.998734065091596 -177.824518181017 0.0211229850736298 -86.2708183826266 
! Gamma         0                0                0                0                
! Port Impedance         50               0                50               0                
8                              0.0159137361572677 -86.2864163186072 0.9988276770116  -178.361671000336 0.998827677011601 -178.361671000336 0.0159137361572677 -86.2864163186081 
! Gamma         0                0                0                0                
! Port Impedance         50               0                50               0                
8.02                           0.0107048630481238 -85.7943506635841 0.998894170326904 -178.898910593859 0.998894170326904 -178.898910593859 0.0107048630481238 -85.7943506635841 
! Gamma         0                0                0                0                
! Port Impedance         50               0                50               0                
8.04                           0.00550450131737878 -83.3544700211499 0.998933512399165 -179.436207778901 0.998933512399165 -179.436207778901 0.00550450131737882 -83.354470021146 
! Gamma         0                0                0                0                
! Port Impedance         50               0                50               0                
8.06                           0.00064044757574546 -23.6461559162504 0.998945683816934 -179.973533340077 0.998945683816934 -179.973533340077 0.00064044757574546 -23.6461559162504 
! Gamma         0                0                0                0                
! Port Impedance         50               0                50               0                
8.08                           0.00499418601930478 82.7060439682372 0.998930678416438 179.489141954074 0.998930678416438 179.489141954074 0.00499418601930476 82.7060439682387 
! Gamma         0                0                0                0                
! Port Impedance         50               0                50               0                
8.1                            0.0101921342755492 85.6156939710405 0.998888503288172 178.951847334456 0.998888503288173 178.951847334456 0.0101921342755492 85.6156939710412 
! Gamma         0                0                0                0                
! Port Impedance         50               0                50               0                
8.12                           0.0154005595783676 86.1955527719443 0.998819178769296 178.414612014772 0.998819178769296 178.414612014772 0.0154005595783676 86.1955527719447 
! Gamma         0                0                0                0                
! Port Impedance         50               0                50               0                
8.14                           0.0206096539007888 86.2107468337699 0.998722738421829 177.877465174909 0.998722738421829 177.877465174909 0.0206096539007888 86.2107468337685 
! Gamma         0                0                0                0                
! Port Impedance         50               0                50               0                
8.16                           0.0258169252304903 86.0031458189497 0.99859922899671 177.340435944363 0.99859922899671 177.340435944363 0.0258169252304903 86.00314581895   
! Gamma         0                0                0                0                
! Port Impedance         50               0                50               0                
8.18                           0.0310210602878387 85.6850805890292 0.998448710383786 176.803553385731 0.998448710383786 176.803553385731 0.0310210602878387 85.6850805890287 
! Gamma         0                0                0                0                
! Port Impedance         50               0                50               0                
8.2                            0.0362210789777277 85.3042983711199 0.998271255547846 176.266846478279 0.998271255547846 176.266846478279 0.0362210789777276 85.3042983711194 
! Gamma         0                0                0                0                
! Port Impedance         50               0                50               0                
8.22                           0.041416126817809 84.8845508254395 0.998066950450815 175.730344101629 0.998066950450815 175.730344101629 0.041416126817809 84.8845508254395 
! Gamma         0                0                0                0                
! Port Impedance         50               0                50               0                
8.24                           0.0466054067344188 84.4389918108445 0.997835893960299 175.194075019558 0.997835893960299 175.194075019558 0.0466054067344188 84.438991810844  
! Gamma         0                0                0                0                
! Port Impedance         50               0                50               0                
8.26                           0.051788152227763 83.9755005006231 0.997578197744646 174.658067863951 0.997578197744646 174.658067863951 0.051788152227763 83.9755005006234 
! Gamma         0                0                0                0                
! Port Impedance         50               0                50               0                
8.28                           0.0569636154676694 83.4990889803114 0.997293986154756 174.122351118913 0.997293986154757 174.122351118913 0.0569636154676693 83.4990889803115 
! Gamma         0                0                0                0                
! Port Impedance         50               0                50               0                
8.3                            0.0621310615732012 83.013101432465  0.996983396092893 173.586953105074 0.996983396092893 173.586953105074 0.0621310615732012 83.013101432465  
! Gamma         0                0                0                0                
! Port Impedance         50               0                50               0                
8.32                           0.0672897657306582 82.519857873658  0.996646576868745 173.051901964087 0.996646576868745 173.051901964087 0.0672897657306582 82.5198578736581 
! Gamma         0                0                0                0                
! Port Impedance         50               0                50               0                
8.34                           0.0724390117221845 82.0210210797304 0.996283690043055 172.517225643354 0.996283690043055 172.517225643354 0.0724390117221845 82.0210210797304 
! Gamma         0                0                0                0                
! Port Impedance         50               0                50               0                
8.36                           0.0775780912007493 81.5178162768759 0.99589490925913 171.982951880992 0.99589490925913 171.982951880992 0.0775780912007493 81.5178162768759 
! Gamma         0                0                0                0                
! Port Impedance         50               0                50               0                
8.38                           0.0827063033801142 81.0111682010453 0.995480420062577 171.449108191054 0.995480420062577 171.449108191054 0.0827063033801141 81.0111682010455 
! Gamma         0                0                0                0                
! Port Impedance         50               0                50               0                
8.4                            0.087822954964521 80.5017896442006 0.995040419709625 170.915721849021 0.995040419709624 170.915721849021 0.087822954964521 80.5017896442005 
! Gamma         0                0                0                0                
! Port Impedance         50               0                50               0                
8.42                           0.0929273602207408 79.9902404029731 0.994575116964419 170.382819877591 0.994575116964419 170.382819877591 0.0929273602207408 79.9902404029733 
! Gamma         0                0                0                0                
! Port Impedance         50               0                50               0                
8.44                           0.098018841136025 79.4769675612629 0.994084731885711 169.850429032764 0.994084731885711 169.850429032764 0.098018841136025 79.4769675612627 
! Gamma         0                0                0                0                
! Port Impedance         50               0                50               0                
8.46                           0.10309672762797 78.9623336554506 0.993569495603334 169.318575790255 0.993569495603334 169.318575790255 0.10309672762797 78.9623336554506 
! Gamma         0                0                0                0                
! Port Impedance         50               0                50               0                
8.48                           0.108160357785142 78.4466367705834 0.993029650084933 168.787286332237 0.993029650084933 168.787286332237 0.108160357785142 78.4466367705833 
! Gamma         0                0                0                0                
! Port Impedance         50               0                50               0                
8.5                            0.113209078124876 77.9301251406126 0.992465447893391 168.256586534429 0.992465447893391 168.256586534429 0.113209078124876 77.9301251406125 
! Gamma         0                0                0                0                
! Port Impedance         50               0                50               0                
8.52                           0.118242243859311 77.4130079289364 0.991877151935422 167.726501953551 0.991877151935421 167.726501953551 0.118242243859311 77.4130079289362 
! Gamma         0                0                0                0                
! Port Impedance         50               0                50               0                
8.54                           0.12325921916357 76.8954633056581 0.991265035201811 167.197057815145 0.991265035201812 167.197057815145 0.12325921916357 76.8954633056583 
! Gamma         0                0                0                0                
! Port Impedance         50               0                50               0                
8.56                           0.128259377441906 76.3776445800377 0.990629380499804 166.668279001778 0.990629380499804 166.668279001778 0.128259377441906 76.3776445800376 
! Gamma         0                0                0                0                
! Port Impedance         50               0                50               0                
8.58                           0.133242101588824 75.8596849128142 0.989970480178122 166.140190041641 0.989970480178122 166.140190041641 0.133242101588824 75.8596849128141 
! Gamma         0                0                0                0                
! Port Impedance         50               0                50               0                
8.6                            0.138206784243034 75.3417009773457 0.989288635845145 165.612815097548 0.989288635845145 165.612815097548 0.138206784243034 75.3417009773456 
! Gamma         0                0                0                0                
! Port Impedance         50               0                50               0                
8.62                           0.14315282803265 74.8237958329194 0.988584158080755 165.086177956348 0.988584158080754 165.086177956348 0.14315282803265 74.8237958329193 
! Gamma         0                0                0                0                
! Port Impedance         50               0                50               0                
8.64                           0.148079645810451 74.3060612008226 0.987857366142363 164.560302018752 0.987857366142363 164.560302018752 0.148079645810451 74.3060612008225 
! Gamma         0                0                0                0                
! Port Impedance         50               0                50               0                
8.66                           0.152986660878321 73.7885792828522 0.98710858766566 164.035210289586 0.98710858766566 164.035210289586 0.152986660878321 73.7885792828522 
! Gamma         0                0                0                0                
! Port Impedance         50               0                50               0                
8.68                           0.157873307200191 73.2714242258521 0.986338158360591 163.510925368478 0.986338158360591 163.510925368478 0.157873307200191 73.2714242258521 
! Gamma         0                0                0                0                
! Port Impedance         50               0                50               0                
8.7                            0.162739029602954 72.7546633099211 0.985546421703112 162.987469440977 0.985546421703112 162.987469440977 0.162739029602954 72.7546633099213 
! Gamma         0                0                0                0                
! Port Impedance         50               0                50               0                
8.72                           0.167583283964981 72.2383579190909 0.984733728623218 162.464864270114 0.984733728623218 162.464864270114 0.167583283964981 72.2383579190907 
! Gamma         0                0                0                0                
! Port Impedance         50               0                50               0                
8.74                           0.17240553739193 71.722564339417  0.983900437189807 161.94313118841  0.983900437189807 161.94313118841  0.17240553739193 71.722564339417  
! Gamma         0                0                0                0                
! Port Impedance         50               0                50               0                
8.76                           0.177205268379651 71.2073344191406 0.983046912292859 161.422291090326 0.983046912292859 161.422291090325 0.177205268379651 71.2073344191405 
! Gamma         0                0                0                0                
! Port Impedance         50               0                50               0                
8.78                           0.181981966964025 70.6927161178625 0.982173525323484 160.902364425163 0.982173525323484 160.902364425163 0.181981966964025 70.6927161178625 
! Gamma         0                0                0                0                
! Port Impedance         50               0                50               0                
8.8                            0.186735134857665 70.1787539658448 0.981280653852315 160.383371190417 0.981280653852315 160.383371190417 0.186735134857665 70.1787539658448 
! Gamma         0                0                0                0                
! Port Impedance         50               0                50               0                
8.82                           0.191464285573429 69.6654894500948 0.980368681306774 159.865330925572 0.980368681306775 159.865330925572 0.19146428557343 69.6654894500948 
! Gamma         0                0                0                0                
! Port Impedance         50               0                50               0                
8.84                           0.196168944534751 69.1529613404741 0.979437996647687 159.348262706357 0.979437996647687 159.348262706357 0.196168944534751 69.1529613404742 
! Gamma         0                0                0                0                
! Port Impedance         50               0                50               0                
8.86                           0.200848649172824 68.6412059664153 0.978488994045743 158.832185139436 0.978488994045743 158.832185139436 0.200848649172824 68.6412059664152 
! Gamma         0                0                0                0                
! Port Impedance         50               0                50               0                
8.88                           0.205502949010728 68.1302574527661 0.977522072558268 158.317116357559 0.977522072558268 158.317116357559 0.205502949010728 68.1302574527661 
! Gamma         0                0                0                0                
! Port Impedance         50               0                50               0                
8.9                            0.21013140573458 67.6201479216505 0.976537635806777 157.803074015144 0.976537635806777 157.803074015144 0.21013140573458 67.6201479216504 
! Gamma         0                0                0                0                
! Port Impedance         50               0                50               0                
8.92                           0.214733593251867 67.1109076659557 0.975536091655745 157.290075284306 0.975536091655745 157.290075284306 0.214733593251867 67.1109076659556 
! Gamma         0                0                0                0                
! Port Impedance         50               0                50               0                
8.94                           0.219309097737102 66.6025652990293 0.97451785189306 156.778136851322 0.97451785189306 156.778136851322 0.219309097737102 66.6025652990293 
! Gamma         0                0                0                0                
! Port Impedance         50               0                50               0                
8.96                           0.223857517664998 66.0951478843553 0.973483331912543 156.267274913524 0.973483331912543 156.267274913524 0.223857517664998 66.0951478843552 
! Gamma         0                0                0                0                
! Port Impedance         50               0                50               0                
8.98                           0.22837846383136 65.5886810483178 0.972432950398985 155.75750517662  0.972432950398985 155.75750517662  0.228378463831359 65.5886810483179 
! Gamma         0                0                0                0                
! Port Impedance         50               0                50               0                
9                              0.232871559361922 65.0831890786335 0.97136712901606 155.248842852435 0.97136712901606 155.248842852435 0.232871559361922 65.0831890786336 
! Gamma         0                0                0                0                
! Port Impedance         50               0                50               0                
9.02                           0.237336439709372 64.5786950105982 0.970286292097514 154.741302657067 0.970286292097515 154.741302657067 0.237336439709372 64.5786950105983 
! Gamma         0                0                0                0                
! Port Impedance         50               0                50               0                
9.04                           0.241772752638828 64.0752207029435 0.969190866341985 154.234898809451 0.969190866341985 154.234898809451 0.241772752638827 64.0752207029434 
! Gamma         0                0                0                0                
! Port Impedance         50               0                50               0                
9.06                           0.246180158202036 63.5727869048092 0.96808128051179 153.729645030317 0.96808128051179 153.729645030317 0.246180158202036 63.5727869048092 
! Gamma         0                0                0                0                
! Port Impedance         50               0                50               0                
9.08                           0.2505583287006  63.0714133150976 0.96695796513603 153.225554541546 0.96695796513603 153.225554541546 0.2505583287006  63.0714133150976 
! Gamma         0                0                0                0                
! Port Impedance         50               0                50               0                
9.1                            0.254906948638517 62.571118635283  0.965821352218299 152.722640065908 0.965821352218299 152.722640065908 0.254906948638517 62.571118635283  
! Gamma         0                0                0                0                
! Port Impedance         50               0                50               0                
9.12                           0.259225714664361 62.0719206165812 0.9646718749493  152.220913827172 0.9646718749493  152.220913827172 0.259225714664361 62.0719206165813 
! Gamma         0                0                0                0                
! Port Impedance         50               0                50               0                
9.14                           0.263514335503432 61.573836102253  0.963509967424659 151.720387550584 0.963509967424659 151.720387550584 0.263514335503433 61.573836102253  
! Gamma         0                0                0                0                
! Port Impedance         50               0                50               0                
9.16                           0.267772531880201 61.0768810656948 0.96233606436816 151.221072463702 0.96233606436816 151.221072463702 0.2677725318802  61.0768810656949 
! Gamma         0                0                0                0                
! Port Impedance         50               0                50               0                
9.18                           0.272000036431396 60.5810706448838 0.961150600860682 150.722979297577 0.961150600860681 150.722979297577 0.272000036431396 60.5810706448838 
! Gamma         0                0                0                0                
! Port Impedance         50               0                50               0                
9.2                            0.276196593610095 60.0864191736524 0.959954012075029 150.226118288268 0.959954012075029 150.226118288268 0.276196593610094 60.0864191736524 
! Gamma         0                0                0                0                
! Port Impedance         50               0                50               0                
9.22                           0.280361959581151 59.5929402102105 0.958746733016875 149.730499178688 0.958746733016875 149.730499178688 0.280361959581151 59.5929402102104 
! Gamma         0                0                0                0                
! Port Impedance         50               0                50               0                
9.24                           0.284495902108346 59.1006465632668 0.957529198272006 149.236131220762 0.957529198272006 149.236131220762 0.284495902108346 59.1006465632669 
! Gamma         0                0                0                0                
! Port Impedance         50               0                50               0                
9.26                           0.288598200433604 58.609550316059  0.956301841760019 148.743023177894 0.956301841760019 148.743023177894 0.288598200433604 58.6095503160591 
! Gamma         0                0                0                0                
! Port Impedance         50               0                50               0                
9.28                           0.292668645148658 58.119662848554  0.955065096494661 148.251183327723 0.95506509649466 148.251183327723 0.292668645148658 58.119662848554  
! Gamma         0                0                0                0                
! Port Impedance         50               0                50               0                
9.3                            0.296707038059523 57.6309948580498 0.953819394350898 147.76061946517  0.953819394350898 147.76061946517  0.296707038059523 57.6309948580498 
! Gamma         0                0                0                0                
! Port Impedance         50               0                50               0                
9.32                           0.300713192044148 57.1435563783773 0.952565165838884 147.271338905752 0.952565165838884 147.271338905752 0.300713192044148 57.1435563783773 
! Gamma         0                0                0                0                
! Port Impedance         50               0                50               0                
9.34                           0.304686930903622 56.6573567978709 0.951302839884878 146.783348489156 0.951302839884878 146.783348489156 0.304686930903622 56.6573567978709 
! Gamma         0                0                0                0                
! Port Impedance         50               0                50               0                
9.36                           0.308628089207289 56.1724048762622 0.950032843619254 146.296654583073 0.950032843619254 146.296654583073 0.308628089207289 56.1724048762623 
! Gamma         0                0                0                0                
! Port Impedance         50               0                50               0                
9.38                           0.312536512132159 55.6887087606221 0.948755602171624 145.811263087255 0.948755602171624 145.811263087255 0.312536512132159 55.6887087606221 
! Gamma         0                0                0                0                
! Port Impedance         50               0                50               0                
9.4                            0.316412055296953 55.2062760004677 0.947471538473159 145.327179437818 0.947471538473158 145.327179437818 0.316412055296953 55.2062760004677 
! Gamma         0                0                0                0                
! Port Impedance         50               0                50               0                
9.42                           0.320254584591163 54.7251135621303 0.946181073066145 144.844408611746 0.946181073066145 144.844408611746 0.320254584591163 54.7251135621304 
! Gamma         0                0                0                0                
! Port Impedance         50               0                50               0                
9.44                           0.32406397599948 54.2452278424718 0.944884623920794 144.362955131612 0.944884623920794 144.362955131612 0.32406397599948 54.2452278424718 
! Gamma         0                0                0                0                
! Port Impedance         50               0                50               0                
9.46                           0.327840115421923 53.7666246820228 0.943582606259329 143.882823070482 0.943582606259329 143.882823070482 0.327840115421923 53.7666246820228 
! Gamma         0                0                0                0                
! Port Impedance         50               0                50               0                
9.48                           0.331582898490044 53.2893093776092 0.942275432387341 143.404016057016 0.942275432387341 143.404016057016 0.331582898490044 53.2893093776092 
! Gamma         0                0                0                0                
! Port Impedance         50               0                50               0                
9.5                            0.335292230379528 52.8132866945219 0.940963511532409 142.926537280727 0.940963511532409 142.926537280727 0.335292230379528 52.8132866945219 
! Gamma         0                0                0                0                
! Port Impedance         50               0                50               0                
9.52                           0.338968025619531 52.3385608782811 0.939647249689953 142.450389497413 0.939647249689953 142.450389497413 0.338968025619532 52.3385608782811 
! Gamma         0                0                0                0                
! Port Impedance         50               0                50               0                
9.54                           0.34261020789908 51.8651356660375 0.938327049476288 141.975575034734 0.938327049476288 141.975575034734 0.34261020789908 51.8651356660375 
! Gamma         0                0                0                0                
! Port Impedance         50               0                50               0                
9.56                           0.346218709870857 51.3930142976468 0.937003309988833 141.502095797929 0.937003309988833 141.502095797929 0.346218709870857 51.3930142976468 
! Gamma         0                0                0                0                
! Port Impedance         50               0                50               0                
9.58                           0.349793472952683 50.9221995264524 0.935676426673409 141.029953275667 0.935676426673409 141.029953275667 0.349793472952683 50.9221995264524 
! Gamma         0                0                0                0                
! Port Impedance         50               0                50               0                
9.6                            0.353334447126995 50.4526936298019 0.934346791198573 140.559148546015 0.934346791198573 140.559148546015 0.353334447126995 50.4526936298019 
! Gamma         0                0                0                0                
! Port Impedance         50               0                50               0                
9.62                           0.356841590738626 49.9844984193244 0.933014791336894 140.089682282512 0.933014791336894 140.089682282512 0.356841590738626 49.9844984193244 
! Gamma         0                0                0                0                
! Port Impedance         50               0                50               0                
9.64                           0.360314870291163 49.5176152509881 0.931680810853104 139.621554760352 0.931680810853104 139.621554760352 0.360314870291163 49.5176152509881 
! Gamma         0                0                0                0                
! Port Impedance         50               0                50               0                
9.66                           0.363754260242173 49.0520450349569 0.93034522939901 139.15476586265  0.93034522939901 139.15476586265  0.363754260242173 49.0520450349569 
! Gamma         0                0                0                0                
! Port Impedance         50               0                50               0                
9.68                           0.367159742797557 48.5877882452626 0.929008422415086 138.68931508679  0.929008422415086 138.68931508679  0.367159742797557 48.5877882452626 
! Gamma         0                0                0                0                
! Port Impedance         50               0                50               0                
9.7                            0.370531307705301 48.124844929305  0.927670761038618 138.225201550847 0.927670761038619 138.225201550847 0.370531307705302 48.1248449293051 
! Gamma         0                0                0                0                
! Port Impedance         50               0                50               0                
9.72                           0.373868952048867 47.6632147171929 0.926332612018305 137.76242400007  0.926332612018304 137.76242400007  0.373868952048867 47.6632147171929 
! Gamma         0                0                0                0                
! Port Impedance         50               0                50               0                
9.74                           0.377172680040465 47.202896830934  0.92499433763517 137.30098081342  0.92499433763517 137.30098081342  0.377172680040465 47.202896830934  
! Gamma         0                0                0                0                
! Port Impedance         50               0                50               0                
9.76                           0.380442502814457 46.7438900934843 0.923656295629693 136.840870010154 0.923656295629693 136.840870010154 0.380442502814456 46.7438900934843 
! Gamma         0                0                0                0                
! Port Impedance         50               0                50               0                
9.78                           0.383678438221083 46.2861929376624 0.922318839134987 136.382089256443 0.922318839134987 136.382089256443 0.383678438221083 46.2861929376624 
! Gamma         0                0                0                0                
! Port Impedance         50               0                50               0                
9.8                            0.386880510620755 45.8298034149352 0.920982316615923 135.924635872026 0.920982316615923 135.924635872026 0.386880510620755 45.8298034149353 
! Gamma         0                0                0                0                
! Port Impedance         50               0                50               0                
9.82                           0.390048750679097 45.3747192040799 0.919647071814035 135.468506836878 0.919647071814035 135.468506836878 0.390048750679097 45.3747192040799 
! Gamma         0                0                0                0                
! Port Impedance         50               0                50               0                
9.84                           0.393183195162938 44.9209376197267 0.918313443698079 135.013698797902 0.918313443698079 135.013698797902 0.393183195162938 44.9209376197266 
! Gamma         0                0                0                0                
! Port Impedance         50               0                50               0                
9.86                           0.396283886737445 44.4684556207842 0.916981766420092 134.560208075618 0.916981766420092 134.560208075618 0.396283886737445 44.4684556207842 
! Gamma         0                0                0                0                
! Port Impedance         50               0                50               0                
9.88                           0.399350873764555 44.0172698187523 0.915652369276794 134.10803067086  0.915652369276794 134.10803067086  0.399350873764556 44.0172698187523 
! Gamma         0                0                0                0                
! Port Impedance         50               0                50               0                
9.9                            0.402384210102892 43.5673764859228 0.914325576676204 133.657162271465 0.914325576676204 133.657162271465 0.402384210102892 43.5673764859228 
! Gamma         0                0                0                0                
! Port Impedance         50               0                50               0                
9.92                           0.405383954909303 43.1187715634696 0.913001708109292 133.207598258945 0.913001708109292 133.207598258945 0.405383954909304 43.1187715634695 
! Gamma         0                0                0                0                
! Port Impedance         50               0                50               0                
9.94                           0.408350172442191 42.6714506694304 0.911681078126523 132.759333715149 0.911681078126523 132.759333715149 0.408350172442191 42.6714506694304 
! Gamma         0                0                0                0                
! Port Impedance         50               0                50               0                
9.96                           0.411282931866743 42.2254091065811 0.910363996319142 132.312363428892 0.910363996319142 132.312363428892 0.411282931866743 42.2254091065811 
! Gamma         0                0                0                0                
! Port Impedance         50               0                50               0                
9.98                           0.414182307062219 41.7806418702009 0.909050767305032 131.866681902558 0.909050767305032 131.866681902558 0.414182307062219 41.7806418702009 
! Gamma         0                0                0                0                
! Port Impedance         50               0                50               0                
10                             0.417048376431405 41.3371436557321 0.907741690719001 131.422283358669 0.907741690719001 131.422283358669 0.417048376431404 41.337143655732  
! Gamma         0                0                0                0                
! Port Impedance         50               0                50               0                
10.02                          0.419881222712339 40.8949088663313 0.906437061207322 130.979161746412 0.906437061207322 130.979161746412 0.419881222712339 40.8949088663313 
! Gamma         0                0                0                0                
! Port Impedance         50               0                50               0                
10.04                          0.422680932792432 40.4539316203144 0.905137168426397 130.537310748119 0.905137168426398 130.537310748119 0.422680932792432 40.4539316203144 
! Gamma         0                0                0                0                
! Port Impedance         50               0                50               0                
10.06                          0.425447597525058 40.0142057584939 0.903842297045361 130.096723785699 0.903842297045362 130.096723785699 0.425447597525058 40.0142057584939 
! Gamma         0                0                0                0                
! Port Impedance         50               0                50               0                
10.08                          0.428181311548719 39.575724851408  0.902552726752488 129.657394027019 0.902552726752488 129.657394027019 0.428181311548719 39.575724851408  
! Gamma         0                0                0                0                
! Port Impedance         50               0                50               0                
10.1                           0.430882173108857 39.1384822064427 0.901268732265231 129.219314392222 0.901268732265231 129.219314392222 0.430882173108857 39.1384822064427 
! Gamma         0                0                0                0                
! Port Impedance         50               0                50               0                
10.12                          0.433550283882389 38.7024708748445 0.89999058334377 128.782477559984 0.89999058334377 128.782477559984 0.433550283882389 38.7024708748445 
! Gamma         0                0                0                0                
! Port Impedance         50               0                50               0                
10.14                          0.436185748805027 38.2676836586246 0.898718544807874 128.34687597371  0.898718544807874 128.34687597371  0.436185748805027 38.2676836586246 
! Gamma         0                0                0                0                
! Port Impedance         50               0                50               0                
10.16                          0.438788675901454 37.8341131173539 0.89745287655697 127.912501847656 0.89745287655697 127.912501847656 0.438788675901454 37.8341131173539 
! Gamma         0                0                0                0                
! Port Impedance         50               0                50               0                
10.18                          0.441359176118395 37.4017515748478 0.896193833593239 127.479347172979 0.896193833593239 127.479347172979 0.441359176118395 37.4017515748478 
! Gamma         0                0                0                0                
! Port Impedance         50               0                50               0                
10.2                           0.443897363160635 36.9705911257412 0.894941666047618 127.047403723721 0.894941666047618 127.047403723721 0.443897363160634 36.9705911257412 
! Gamma         0                0                0                0                
! Port Impedance         50               0                50               0                
10.22                          0.446403353330022 36.5406236419523 0.893696619208538 126.616663062699 0.893696619208538 126.616663062699 0.446403353330022 36.5406236419523 
! Gamma         0                0                0                0                
! Port Impedance         50               0                50               0                
10.24                          0.448877265367503 36.1118407790357 0.892458933553288 126.187116547333 0.892458933553288 126.187116547333 0.448877265367503 36.1118407790357 
! Gamma         0                0                0                0                
! Port Impedance         50               0                50               0                
10.26                          0.451319220298191 35.6842339824245 0.891228844781837 125.75875533538  0.891228844781837 125.75875533538  0.451319220298191 35.6842339824246 
! Gamma         0                0                0                0                
! Port Impedance         50               0                50               0                
10.28                          0.453729341279524 35.2577944935599 0.890006583852994 125.331570390585 0.890006583852993 125.331570390585 0.453729341279524 35.2577944935599 
! Gamma         0                0                0                0                
! Port Impedance         50               0                50               0                
10.3                           0.456107753452495 34.8325133559097 0.888792377022775 124.905552488249 0.888792377022775 124.905552488249 0.456107753452495 34.8325133559097 
! Gamma         0                0                0                0                
! Port Impedance         50               0                50               0                
10.32                          0.458454583796   34.4083814208746 0.887586445884834 124.480692220709 0.887586445884833 124.480692220709 0.458454583796   34.4083814208746 
! Gamma         0                0                0                0                
! Port Impedance         50               0                50               0                
10.34                          0.46076996098429 33.9853893535824 0.886389007412843 124.056980002723 0.886389007412843 124.056980002723 0.46076996098429 33.9853893535824 
! Gamma         0                0                0                0                
! Port Impedance         50               0                50               0                
10.36                          0.463054015247539 33.5635276385699 0.885200274004686 123.634406076771 0.885200274004686 123.634406076771 0.463054015247538 33.5635276385699 
! Gamma         0                0                0                0                
! Port Impedance         50               0                50               0                
10.38                          0.465306878235518 33.1427865853532 0.884020453528353 123.212960518256 0.884020453528353 123.212960518256 0.465306878235518 33.1427865853532 
! Gamma         0                0                0                0                
! Port Impedance         50               0                50               0                
10.4                           0.467528682884394 32.7231563338855 0.882849749369415 122.792633240621 0.882849749369415 122.792633240621 0.467528682884394 32.7231563338855 
! Gamma         0                0                0                0                
! Port Impedance         50               0                50               0                
10.42                          0.469719563286608 32.3046268599039 0.881688360479959 122.373414000363 0.881688360479958 122.373414000363 0.469719563286609 32.3046268599039 
! Gamma         0                0                0                0                
! Port Impedance         50               0                50               0                
10.44                          0.471879654563858 31.8871879801639 0.880536481428875 121.955292401957 0.880536481428875 121.955292401957 0.471879654563858 31.8871879801639 
! Gamma         0                0                0                0                
! Port Impedance         50               0                50               0                
10.46                          0.474009092743136 31.4708293575635 0.879394302453389 121.538257902682 0.879394302453389 121.538257902682 0.474009092743136 31.4708293575635 
! Gamma         0                0                0                0                
! Port Impedance         50               0                50               0                
10.48                          0.476108014635834 31.0555405061562 0.87826200951173 121.122299817353 0.878262009511731 121.122299817353 0.476108014635835 31.0555405061562 
! Gamma         0                0                0                0                
! Port Impedance         50               0                50               0                
10.5                           0.478176557719868 30.6413107960538 0.877139784336831 120.707407322956 0.877139784336831 120.707407322956 0.478176557719869 30.6413107960537 
! Gamma         0                0                0                0                
! Port Impedance         50               0                50               0                
10.52                          0.480214860024809 30.2281294582194 0.876027804490962 120.293569463181 0.876027804490962 120.293569463181 0.480214860024809 30.2281294582194 
! Gamma         0                0                0                0                
! Port Impedance         50               0                50               0                
10.54                          0.482223060019995 29.8159855891521 0.874926243421211 119.880775152871 0.874926243421211 119.880775152871 0.482223060019995 29.815985589152  
! Gamma         0                0                0                0                
! Port Impedance         50               0                50               0                
10.56                          0.484201296505585 29.4048681554618 0.8738352705157  119.469013182356 0.873835270515699 119.469013182356 0.484201296505585 29.4048681554618 
! Gamma         0                0                0                0                
! Port Impedance         50               0                50               0                
10.58                          0.486149708506534 28.994765998338  0.87275505116046 119.05827222171  0.87275505116046 119.05827222171  0.486149708506534 28.994765998338  
! Gamma         0                0                0                0                
! Port Impedance         50               0                50               0                
10.6                           0.488068435169443 28.5856678379108 0.871685746796879 118.648540824893 0.871685746796879 118.648540824893 0.488068435169443 28.5856678379108 
! Gamma         0                0                0                0                
! Port Impedance         50               0                50               0                
10.62                          0.489957615662254 28.177562277506  0.870627514979626 118.239807433811 0.870627514979626 118.239807433811 0.489957615662254 28.1775622775059 
! Gamma         0                0                0                0                
! Port Impedance         50               0                50               0                
10.64                          0.491817389076753 27.7704378077953 0.869580509434989 117.832060382272 0.869580509434989 117.832060382272 0.491817389076752 27.7704378077953 
! Gamma         0                0                0                0                
! Port Impedance         50               0                50               0                
10.66                          0.493647894333839 27.3642828108427 0.868544880119531 117.425287899851 0.868544880119531 117.42528789985  0.493647894333839 27.3642828108427 
! Gamma         0                0                0                0                
! Port Impedance         50               0                50               0                
10.68                          0.495449270091518 26.9590855640473 0.867520773279004 117.019478115654 0.867520773279004 117.019478115654 0.495449270091519 26.9590855640473 
! Gamma         0                0                0                0                
! Port Impedance         50               0                50               0                
10.7                           0.49722165465558 26.5548342439845 0.866508331507442 116.614619061998 0.866508331507442 116.614619061998 0.49722165465558 26.5548342439845 
! Gamma         0                0                0                0                
! Port Impedance         50               0                50               0                
10.72                          0.498965185892908 26.1515169301464 0.86550769380636 116.210698677987 0.86550769380636 116.210698677987 0.498965185892908 26.1515169301464 
! Gamma         0                0                0                0                
! Port Impedance         50               0                50               0                
10.74                          0.500680001147394 25.7491216085819 0.864518995644003 115.807704813001 0.864518995644003 115.807704813001 0.500680001147394 25.7491216085819 
! Gamma         0                0                0                0                
! Port Impedance         50               0                50               0                
10.76                          0.502366237158397 25.3476361754394 0.863542369014577 115.405625230093 0.863542369014578 115.405625230093 0.502366237158397 25.3476361754394 
! Gamma         0                0                0                0                
! Port Impedance         50               0                50               0                
10.78                          0.504024029981701 24.9470484404113 0.8625779424974  115.004447609294 0.8625779424974  115.004447609294 0.504024029981701 24.9470484404113 
! Gamma         0                0                0                0                
! Port Impedance         50               0                50               0                
10.8                           0.505653514912929 24.547346130083  0.861625841315909 114.604159550824 0.861625841315909 114.604159550824 0.505653514912929 24.547346130083  
! Gamma         0                0                0                0                
! Port Impedance         50               0                50               0                
10.82                          0.507254826413371 24.1485168911874 0.86068618739649 114.204748578227 0.860686187396489 114.204748578227 0.507254826413371 24.1485168911874 
! Gamma         0                0                0                0                
! Port Impedance         50               0                50               0                
10.84                          0.508828098038163 23.7505482937655 0.859759099427041 113.806202141398 0.859759099427041 113.806202141398 0.508828098038163 23.7505482937655 
! Gamma         0                0                0                0                
! Port Impedance         50               0                50               0                
10.86                          0.510373462366783 23.353427834236  0.858844692915264 113.408507619542 0.858844692915263 113.408507619542 0.510373462366783 23.353427834236  
! Gamma         0                0                0                0                
! Port Impedance         50               0                50               0                
10.88                          0.511891050935801 22.9571429383738 0.857943080246587 113.011652324038 0.857943080246587 113.011652324038 0.511891050935801 22.9571429383738 
! Gamma         0                0                0                0                
! Port Impedance         50               0                50               0                
10.9                           0.513380994173857 22.5616809641993 0.857054370741717 112.615623501219 0.857054370741717 112.615623501219 0.513380994173858 22.5616809641993 
! Gamma         0                0                0                0                
! Port Impedance         50               0                50               0                
10.92                          0.514843421338786 22.1670292047809 0.856178670713746 112.220408335069 0.856178670713747 112.220408335069 0.514843421338786 22.1670292047809 
! Gamma         0                0                0                0                
! Port Impedance         50               0                50               0                
10.94                          0.516278460456871 21.7731748909501 0.855316083524791 111.82599394984  0.855316083524791 111.82599394984  0.516278460456871 21.7731748909501 
! Gamma         0                0                0                0                
! Port Impedance         50               0                50               0                
10.96                          0.517686238264155 21.3801051939333 0.854466709642108 111.432367412589 0.854466709642108 111.432367412589 0.517686238264155 21.3801051939333 
! Gamma         0                0                0                0                
! Port Impedance         50               0                50               0                
10.98                          0.519066880149776 20.9878072278994 0.853630646693667 111.039515735629 0.853630646693667 111.039515735629 0.519066880149776 20.9878072278994 
! Gamma         0                0                0                0                
! Port Impedance         50               0                50               0                
11                             0.52042051010126 20.5962680524265 0.852807989523134 110.647425878911 0.852807989523134 110.647425878911 0.52042051010126 20.5962680524265 
! Gamma         0                0                0                0                
! Port Impedance         50               0                50               0                
11.02                          0.521747250651755 20.2054746748879 0.851998830244231 110.256084752322 0.851998830244232 110.256084752322 0.521747250651755 20.2054746748879 
! Gamma         0                0                0                0                
! Port Impedance         50               0                50               0                
11.04                          0.523047222829113 19.8154140527598 0.851203258294448 109.865479217913 0.851203258294448 109.865479217913 0.523047222829113 19.8154140527598 
! Gamma         0                0                0                0                
! Port Impedance         50               0                50               0                
11.06                          0.524320546106813 19.4260730958522 0.850421360488067 109.475596092045 0.850421360488067 109.475596092045 0.524320546106814 19.4260730958521 
! Gamma         0                0                0                0                
! Port Impedance         50               0                50               0                
11.08                          0.52556733835666 19.0374386684639 0.849653221068489 109.086422147476 0.849653221068488 109.086422147476 0.525567338356661 19.0374386684639 
! Gamma         0                0                0                0                
! Port Impedance         50               0                50               0                
11.1                           0.526787715803203 18.6494975914644 0.848898921759808 108.697944115362 0.848898921759808 108.697944115362 0.526787715803203 18.6494975914644 
! Gamma         0                0                0                0                
! Port Impedance         50               0                50               0                
11.12                          0.527981792979856 18.2622366443018 0.848158541817637 108.310148687199 0.848158541817637 108.310148687199 0.527981792979856 18.2622366443018 
! Gamma         0                0                0                0                
! Port Impedance         50               0                50               0                
11.14                          0.529149682686643 17.8756425669425 0.847432158079146 107.92302251669  0.847432158079147 107.92302251669  0.529149682686643 17.8756425669425 
! Gamma         0                0                0                0                
! Port Impedance         50               0                50               0                
11.16                          0.530291495949542 17.4897020617393 0.846719845012291 107.53655222155  0.846719845012291 107.53655222155  0.530291495949542 17.4897020617393 
! Gamma         0                0                0                0                
! Port Impedance         50               0                50               0                
11.18                          0.531407341981386 17.1044017952328 0.846021674764215 107.150724385244 0.846021674764215 107.150724385244 0.531407341981385 17.1044017952328 
! Gamma         0                0                0                0                
! Port Impedance         50               0                50               0                
11.2                           0.532497328144252 16.7197283998879 0.845337717208816 106.765525558659 0.845337717208815 106.765525558659 0.532497328144252 16.7197283998879 
! Gamma         0                0                0                0                
! Port Impedance         50               0                50               0                
11.22                          0.533561559913338 16.3356684757635 0.844668039993432 106.380942261717 0.844668039993432 106.380942261717 0.533561559913338 16.3356684757635 
! Gamma         0                0                0                0                
! Port Impedance         50               0                50               0                
11.24                          0.534600140842235 15.9522085921214 0.844012708584661 105.996960984923 0.844012708584661 105.996960984923 0.534600140842235 15.9522085921214 
! Gamma         0                0                0                0                
! Port Impedance         50               0                50               0                
11.26                          0.535613172529599 15.5693352889727 0.843371786313279 105.61356819086  0.843371786313279 105.61356819086  0.5356131725296  15.5693352889727 
! Gamma         0                0                0                0                
! Port Impedance         50               0                50               0                
11.28                          0.536600754587151 15.1870350785648 0.842745334418249 105.230750315618 0.842745334418249 105.230750315618 0.536600754587151 15.1870350785648 
! Gamma         0                0                0                0                
! Port Impedance         50               0                50               0                
11.3                           0.537562984608978 14.8052944468102 0.842133412089801 104.848493770173 0.842133412089801 104.848493770173 0.537562984608978 14.8052944468102 
! Gamma         0                0                0                0                
! Port Impedance         50               0                50               0                
11.32                          0.538499958142094 14.4240998546584 0.841536076511589 104.466784941707 0.84153607651159 104.466784941707 0.538499958142093 14.4240998546584 
! Gamma         0                0                0                0                
! Port Impedance         50               0                50               0                
11.34                          0.539411768658226 14.0434377394129 0.840953382901889 104.085610194874 0.840953382901889 104.085610194874 0.539411768658226 14.0434377394129 
! Gamma         0                0                0                0                
! Port Impedance         50               0                50               0                
11.36                          0.540298507526782 13.6632945159943 0.840385384553841 103.704955873022 0.840385384553842 103.704955873022 0.540298507526781 13.6632945159943 
! Gamma         0                0                0                0                
! Port Impedance         50               0                50               0                
11.38                          0.541160263988963 13.2836565781518 0.839832132874732 103.324808299348 0.839832132874732 103.324808299348 0.541160263988963 13.2836565781518 
! Gamma         0                0                0                0                
! Port Impedance         50               0                50               0                
11.4                           0.541997125132995 12.9045102996236 0.839293677424289 102.945153778023 0.839293677424289 102.945153778023 0.541997125132995 12.9045102996236 
! Gamma         0                0                0                0                
! Port Impedance         50               0                50               0                
11.42                          0.542809175870438 12.5258420352486 0.838770065952001 102.565978595254 0.838770065952001 102.565978595254 0.542809175870438 12.5258420352486 
! Gamma         0                0                0                0                
! Port Impedance         50               0                50               0                
11.44                          0.543596498913531 12.1476381220304 0.838261344433445 102.187269020307 0.838261344433445 102.187269020307 0.543596498913531 12.1476381220304 
! Gamma         0                0                0                0                
! Port Impedance         50               0                50               0                
11.46                          0.544359174753559 11.769884880155  0.837767557105605 101.809011306484 0.837767557105605 101.809011306484 0.54435917475356 11.769884880155  
! Gamma         0                0                0                0                
! Port Impedance         50               0                50               0                
11.48                          0.545097281640196 11.3925686139646 0.837288746501201 101.431191692055 0.837288746501201 101.431191692055 0.545097281640196 11.3925686139646 
! Gamma         0                0                0                0                
! Port Impedance         50               0                50               0                
11.5                           0.54581089556179 11.0156756128876 0.836824953482002 101.053796401149 0.836824953482002 101.053796401149 0.54581089556179 11.0156756128876 
! Gamma         0                0                0                0                
! Port Impedance         50               0                50               0                
11.52                          0.546500090226581 10.6391921523273 0.836376217271116 100.676811644605 0.836376217271116 100.676811644605 0.546500090226581 10.6391921523273 
! Gamma         0                0                0                0                
! Port Impedance         50               0                50               0                
11.54                          0.547164937044795 10.2631044945101 0.835942575484277 100.300223620783 0.835942575484277 100.300223620783 0.547164937044795 10.2631044945101 
! Gamma         0                0                0                0                
! Port Impedance         50               0                50               0                
11.56                          0.547805505111606 9.88739888929528 0.835524064160093 99.9240185163332 0.835524064160093 99.9240185163332 0.547805505111606 9.88739888929529 
! Gamma         0                0                0                0                
! Port Impedance         50               0                50               0                
11.58                          0.548421861190936 9.51206157494739 0.835120717789282 99.5481825069387 0.835120717789282 99.5481825069387 0.548421861190936 9.51206157494739 
! Gamma         0                0                0                0                
! Port Impedance         50               0                50               0                
11.6                           0.549014069700053 9.13707877887228 0.834732569342866 99.1727017580114 0.834732569342866 99.1727017580114 0.549014069700053 9.13707877887227 
! Gamma         0                0                0                0                
! Port Impedance         50               0                50               0                
11.62                          0.549582192694963 8.76243671831952 0.834359650299338 98.7975624253621 0.834359650299338 98.7975624253621 0.549582192694963 8.76243671831951 
! Gamma         0                0                0                0                
! Port Impedance         50               0                50               0                
11.64                          0.550126289856554 8.38812160105064 0.834001990670798 98.4227506558346 0.834001990670798 98.4227506558346 0.550126289856554 8.38812160105065 
! Gamma         0                0                0                0                
! Port Impedance         50               0                50               0                
11.66                          0.550646418477481 8.01411962597669 0.833659619028045 98.0482525879104 0.833659619028045 98.0482525879104 0.550646418477481 8.01411962597668 
! Gamma         0                0                0                0                
! Port Impedance         50               0                50               0                
11.68                          0.551142633449756 7.64041698376449 0.833332562524636 97.6740543522822 0.833332562524635 97.6740543522822 0.551142633449756 7.64041698376448 
! Gamma         0                0                0                0                
! Port Impedance         50               0                50               0                
11.7                           0.55161498725304 7.266999857415   0.833020846919899 97.3001420724004 0.833020846919899 97.3001420724004 0.55161498725304 7.266999857415   
! Gamma         0                0                0                0                
! Port Impedance         50               0                50               0                
11.72                          0.552063529943598 6.89385442281305 0.832724496600919 96.9265018649915 0.832724496600919 96.9265018649915 0.552063529943598 6.89385442281305 
! Gamma         0                0                0                0                
! Port Impedance         50               0                50               0                
11.74                          0.552488309143907 6.52096684925146 0.83244353460346 96.5531198405513 0.83244353460346 96.5531198405513 0.552488309143907 6.52096684925146 
! Gamma         0                0                0                0                
! Port Impedance         50               0                50               0                
11.76                          0.552889370032908 6.14832329993016 0.832177982631866 96.1799821038134 0.832177982631866 96.1799821038134 0.552889370032908 6.14832329993016 
! Gamma         0                0                0                0                
! Port Impedance         50               0                50               0                
11.78                          0.553266755336852 5.77590993243173 0.831927861077902 95.8070747541947 0.831927861077902 95.8070747541947 0.553266755336852 5.77590993243173 
! Gamma         0                0                0                0                
! Port Impedance         50               0                50               0                
11.8                           0.553620505320769 5.40371289917456 0.831693189038563 95.4343838862192 0.831693189038563 95.4343838862192 0.553620505320769 5.40371289917456 
! Gamma         0                0                0                0                
! Port Impedance         50               0                50               0                
11.82                          0.553950657780503 5.03171834784521 0.831473984332828 95.0618955899205 0.831473984332828 95.0618955899205 0.553950657780504 5.03171834784521 
! Gamma         0                0                0                0                
! Port Impedance         50               0                50               0                
11.84                          0.554257248035321 4.65991242181141 0.83127026351738 94.6895959512262 0.83127026351738 94.6895959512262 0.554257248035321 4.65991242181141 
! Gamma         0                0                0                0                
! Port Impedance         50               0                50               0                
11.86                          0.554540308921079 4.28828126051627 0.831082041901269 94.3174710523232 0.83108204190127 94.3174710523232 0.554540308921079 4.28828126051627 
! Gamma         0                0                0                0                
! Port Impedance         50               0                50               0                
11.88                          0.554799870783927 3.91681099985573 0.830909333559547 93.9455069720067 0.830909333559547 93.9455069720067 0.554799870783927 3.91681099985573 
! Gamma         0                0                0                0                
! Port Impedance         50               0                50               0                
11.9                           0.555035961474542 3.5454877725408  0.830752151345837 93.5736897860141 0.830752151345837 93.5736897860141 0.555035961474541 3.54548777254081 
! Gamma         0                0                0                0                
! Port Impedance         50               0                50               0                
11.92                          0.555248606342883 3.17429770844423 0.830610506903877 93.2020055673438 0.830610506903877 93.2020055673438 0.555248606342883 3.17429770844423 
! Gamma         0                0                0                0                
! Port Impedance         50               0                50               0                
11.94                          0.555437828233452 2.80322693493548 0.830484410678007 92.8304403865622 0.830484410678007 92.8304403865622 0.555437828233452 2.80322693493548 
! Gamma         0                0                0                0                
! Port Impedance         50               0                50               0                
11.96                          0.555603647481056 2.43226157720231 0.830373871922615 92.4589803120974 0.830373871922615 92.4589803120974 0.555603647481056 2.43226157720231 
! Gamma         0                0                0                0                
! Port Impedance         50               0                50               0                
11.98                          0.555746081907059 2.06138775856339 0.83027889871054 92.0876114105241 0.83027889871054 92.0876114105241 0.555746081907058 2.06138775856339 
! Gamma         0                0                0                0                
! Port Impedance         50               0                50               0                
12                             0.555865146816112 1.69059160077002 0.83019949794043 91.716319746838  0.83019949794043 91.716319746838  0.555865146816112 1.69059160077002 
! Gamma         0                0                0                0                
! Port Impedance         50               0                50               0                
12.02                          0.555960854993375 1.31985922430091 0.830135675343055 91.3450913847229 0.830135675343056 91.3450913847229 0.555960854993375 1.31985922430091 
! Gamma         0                0                0                0                
! Port Impedance         50               0                50               0                
12.04                          0.556033216702191 0.949176748649857 0.830087435486576 90.9739123868108 0.830087435486577 90.9739123868108 0.55603321670219 0.949176748649857 
! Gamma         0                0                0                0                
! Port Impedance         50               0                50               0                
12.06                          0.556082239682241 0.578530292607475 0.830054781780771 90.6027688149359 0.830054781780771 90.6027688149359 0.556082239682241 0.578530292607475 
! Gamma         0                0                0                0                
! Port Impedance         50               0                50               0                
12.08                          0.556107929148161 0.207905974539404 0.83003771648022 90.2316467303859 0.830037716480219 90.2316467303859 0.556107929148162 0.207905974539404 
! Gamma         0                0                0                0                
! Port Impedance         50               0                50               0                
12.1                           0.55611028778861 -0.162710087339321 0.830036240686437 89.8605321941479 0.830036240686436 89.8605321941479 0.556110287788609 -0.162710087339321 
! Gamma         0                0                0                0                
! Port Impedance         50               0                50               0                
12.12                          0.556089315765804 -0.533331774691127 0.830050354348973 89.4894112671543 0.830050354348973 89.4894112671543 0.556089315765804 -0.533331774691127 
! Gamma         0                0                0                0                
! Port Impedance         50               0                50               0                
12.14                          0.556045010715512 -0.903972968783454 0.830080056265464 89.1182700105273 0.830080056265464 89.1182700105273 0.556045010715512 -0.903972968783454 
! Gamma         0                0                0                0                
! Port Impedance         50               0                50               0                
12.16                          0.555977367747497 -1.27464755021563 0.830125344080638 88.747094485824  0.830125344080638 88.747094485824  0.555977367747496 -1.27464755021563 
! Gamma         0                0                0                0                
! Port Impedance         50               0                50               0                
12.18                          0.555886379446424 -1.64536939864361 0.830186214284285 88.3758707552833 0.830186214284285 88.3758707552833 0.555886379446424 -1.64536939864361 
! Gamma         0                0                0                0                
! Port Impedance         50               0                50               0                
12.2                           0.555772035873229 -2.01615239250177 0.830262662208173 88.0045848820759 0.830262662208173 88.0045848820759 0.555772035873229 -2.01615239250177 
! Gamma         0                0                0                0                
! Port Impedance         50               0                50               0                
12.22                          0.555634324566945 -2.38701040871994 0.830354682021929 87.6332229305585 0.830354682021929 87.6332229305585 0.555634324566945 -2.38701040871994 
! Gamma         0                0                0                0                
! Port Impedance         50               0                50               0                
12.24                          0.555473230547   -2.75795732243477 0.830462266727875 87.2617709665336 0.830462266727875 87.2617709665336 0.555473230547   -2.75795732243477 
! Gamma         0                0                0                0                
! Port Impedance         50               0                50               0                
12.26                          0.555288736315982 -3.12900700669417 0.830585408154818 86.8902150575158 0.830585408154818 86.8902150575158 0.555288736315982 -3.12900700669417 
! Gamma         0                0                0                0                
! Port Impedance         50               0                50               0                
12.28                          0.555080821862882 -3.50017333215342 0.830724096950794 86.518541273006  0.830724096950795 86.518541273006  0.555080821862882 -3.50017333215342 
! Gamma         0                0                0                0                
! Port Impedance         50               0                50               0                
12.3                           0.554849464666822 -3.87147016676175 0.83087832257478 86.146735684775  0.830878322574779 86.146735684775  0.554849464666822 -3.87147016676175 
! Gamma         0                0                0                0                
! Port Impedance         50               0                50               0                
12.32                          0.554594639701269 -4.24291137543809 0.831048073287344 85.7747843671577 0.831048073287344 85.7747843671577 0.554594639701269 -4.24291137543809 
! Gamma         0                0                0                0                
! Port Impedance         50               0                50               0                
12.34                          0.554316319438749 -4.61451081973495 0.831233336140269 85.4026733973577 0.831233336140269 85.4026733973577 0.554316319438749 -4.61451081973495 
! Gamma         0                0                0                0                
! Port Impedance         50               0                50               0                
12.36                          0.554014473856072 -4.9862823574886 0.83143409696512 85.0303888557669 0.83143409696512 85.0303888557669 0.554014473856072 -4.9862823574886 
! Gamma         0                0                0                0                
! Port Impedance         50               0                50               0                
12.38                          0.553689070440066 -5.3582398424549 0.831650340360772 84.6579168262973 0.831650340360772 84.6579168262973 0.553689070440066 -5.3582398424549 
! Gamma         0                0                0                0                
! Port Impedance         50               0                50               0                
12.4                           0.55334007419385 -5.73039712392922 0.831882049679898 84.2852433967289 0.831882049679898 84.2852433967289 0.55334007419385 -5.73039712392922 
! Gamma         0                0                0                0                
! Port Impedance         50               0                50               0                
12.42                          0.552967447643636 -6.10276804634866 0.832129207014401 83.9123546590751 0.832129207014401 83.9123546590751 0.552967447643636 -6.10276804634866 
! Gamma         0                0                0                0                
! Port Impedance         50               0                50               0                
12.44                          0.552571150846098 -6.47536644887662 0.832391793179818 83.539236709964  0.832391793179818 83.539236709964  0.552571150846098 -6.47536644887662 
! Gamma         0                0                0                0                
! Port Impedance         50               0                50               0                
12.46                          0.55215114139629 -6.84820616496663 0.832669787698664 83.1658756510414 0.832669787698664 83.1658756510414 0.55215114139629 -6.84820616496663 
! Gamma         0                0                0                0                
! Port Impedance         50               0                50               0                
12.48                          0.551707374436164 -7.2213010219056 0.832963168782746 82.792257589392  0.832963168782746 82.792257589392  0.551707374436164 -7.2213010219056 
! Gamma         0                0                0                0                
! Port Impedance         50               0                50               0                
12.5                           0.551239802663674 -7.59466484033437 0.833271913314427 82.4183686379841 0.833271913314427 82.4183686379841 0.551239802663673 -7.59466484033437 
! Gamma         0                0                0                0                
! Port Impedance         50               0                50               0                
12.52                          0.550748376342495 -7.96831143374446 0.833595996826846 82.044194916136  0.833595996826846 82.044194916136  0.550748376342495 -7.96831143374446 
! Gamma         0                0                0                0                
! Port Impedance         50               0                50               0                
12.54                          0.550233043312379 -8.34225460794988 0.833935393483104 81.6697225500075 0.833935393483104 81.6697225500075 0.550233043312379 -8.34225460794988 
! Gamma         0                0                0                0                
! Port Impedance         50               0                50               0                
12.56                          0.549693749000154 -8.71650816053183 0.8342900760544  81.2949376731177 0.8342900760544  81.2949376731177 0.549693749000153 -8.71650816053184 
! Gamma         0                0                0                0                
! Port Impedance         50               0                50               0                
12.58                          0.549130436431396 -9.09108588025661 0.834660015897133 80.9198264268874 0.834660015897133 80.9198264268874 0.549130436431395 -9.09108588025661 
! Gamma         0                0                0                0                
! Port Impedance         50               0                50               0                
12.6                           0.548543046242789 -9.46600154646293 0.835045182928964 80.544374961213  0.835045182928964 80.544374961213  0.548543046242789 -9.46600154646293 
! Gamma         0                0                0                0                
! Port Impedance         50               0                50               0                
12.62                          0.547931516695202 -9.8412689284198 0.83544554560384 80.1685694350674 0.83544554560384 80.1685694350674 0.547931516695202 -9.8412689284198 
! Gamma         0                0                0                0                
! Port Impedance         50               0                50               0                
12.64                          0.547295783687486 -10.2169017846517 0.835861070885981 79.7923960171332 0.835861070885981 79.7923960171332 0.547295783687486 -10.2169017846517 
! Gamma         0                0                0                0                
! Port Impedance         50               0                50               0                
12.66                          0.546635780771042 -10.5929138622307 0.83629172422284 79.4158408864678 0.83629172422284 79.4158408864679 0.546635780771042 -10.5929138622307 
! Gamma         0                0                0                0                
! Port Impedance         50               0                50               0                
12.68                          0.54595143916516 -10.9693188960334 0.836737469517024 79.0388902332025 0.836737469517024 79.0388902332025 0.545951439165159 -10.9693188960334 
! Gamma         0                0                0                0                
! Port Impedance         50               0                50               0                
12.7                           0.545242687773167 -11.346130607962 0.837198269097191 78.661530259276  0.837198269097191 78.661530259276  0.545242687773168 -11.346130607962 
! Gamma         0                0                0                0                
! Port Impedance         50               0                50               0                
12.72                          0.544509453199411 -11.7233627061277 0.837674083687926 78.283747179205  0.837674083687926 78.283747179205  0.544509453199411 -11.7233627061276 
! Gamma         0                0                0                0                
! Port Impedance         50               0                50               0                
12.74                          0.543751659767091 -12.1010288839942 0.838164872378584 77.9055272208921 0.838164872378584 77.9055272208921 0.543751659767091 -12.1010288839942 
! Gamma         0                0                0                0                
! Port Impedance         50               0                50               0                
12.76                          0.542969229536988 -12.4791428194823 0.838670592591128 77.5268566264729 0.838670592591128 77.5268566264729 0.542969229536988 -12.4791428194823 
! Gamma         0                0                0                0                
! Port Impedance         50               0                50               0                
12.78                          0.542162082327106 -12.8577181740303 0.839191200046943 77.1477216532047 0.839191200046943 77.1477216532047 0.542162082327106 -12.8577181740303 
! Gamma         0                0                0                0                
! Port Impedance         50               0                50               0                
12.8                           0.541330135733258 -13.2367685916128 0.839726648732654 76.7681085743949 0.839726648732654 76.7681085743949 0.541330135733257 -13.2367685916128 
! Gamma         0                0                0                0                
! Port Impedance         50               0                50               0                
12.82                          0.540473305150622 -13.6163076977131 0.840276890864924 76.3880036803753 0.840276890864924 76.3880036803753 0.540473305150622 -13.6163076977132 
! Gamma         0                0                0                0                
! Port Impedance         50               0                50               0                
12.84                          0.539591503796324 -13.9963490982503 0.840841876854274 76.00739327952   0.840841876854275 76.00739327952   0.539591503796325 -13.9963490982503 
! Gamma         0                0                0                0                
! Port Impedance         50               0                50               0                
12.86                          0.538684642733041 -14.3769063784575 0.841421555267901 75.6262636993089 0.841421555267901 75.6262636993089 0.538684642733041 -14.3769063784574 
! Gamma         0                0                0                0                
! Port Impedance         50               0                50               0                
12.88                          0.537752630893685 -14.7579931017102 0.842015872791514 75.2446012874407 0.842015872791514 75.2446012874407 0.537752630893685 -14.7579931017102 
! Gamma         0                0                0                0                
! Port Impedance         50               0                50               0                
12.9                           0.536795375107205 -15.1396228083057 0.842624774190201 74.8623924129928 0.842624774190201 74.8623924129928 0.536795375107205 -15.1396228083057 
! Gamma         0                0                0                0                
! Port Impedance         50               0                50               0                
12.92                          0.53581278012552 -15.5218090141868 0.843248202268327 74.4796234676341 0.843248202268327 74.4796234676341 0.53581278012552 -15.5218090141868 
! Gamma         0                0                0                0                
! Port Impedance         50               0                50               0                
12.94                          0.53480474865164 -15.904565209614 0.843886097828474 74.0962808668875 0.843886097828474 74.0962808668875 0.534804748651641 -15.904565209614 
! Gamma         0                0                0                0                
! Port Impedance         50               0                50               0                
12.96                          0.533771181369003 -16.2879048577805 0.84453839962944 73.712351051448  0.84453839962944 73.712351051448  0.533771181369003 -16.2879048577805 
! Gamma         0                0                0                0                
! Port Impedance         50               0                50               0                
12.98                          0.532711976972066 -16.6718413933708 0.8452050443433  73.3278204885537 0.8452050443433  73.3278204885537 0.532711976972066 -16.6718413933708 
! Gamma         0                0                0                0                
! Port Impedance         50               0                50               0                
13                             0.531627032198193 -17.0563882210599 0.845885966511542 72.9426756734151 0.845885966511542 72.9426756734151 0.531627032198194 -17.0563882210599 
! Gamma         0                0                0                0                
! Port Impedance         50               0                50               0                
13.02                          0.530516241860878 -17.4415587139522 0.846581098500309 72.5569031307008 0.846581098500309 72.5569031307008 0.530516241860877 -17.4415587139522 
! Gamma         0                0                0                0                
! Port Impedance         50               0                50               0                
13.04                          0.529379498884334 -17.8273662119587 0.847290370454723 72.1704894160833 0.847290370454723 72.1704894160833 0.529379498884334 -17.8273662119587 
! Gamma         0                0                0                0                
! Port Impedance         50               0                50               0                
13.06                          0.528216694339514 -18.21382402011  0.848013710252353 71.7834211178453 0.848013710252353 71.7834211178453 0.528216694339513 -18.21382402011  
! Gamma         0                0                0                0                
! Port Impedance         50               0                50               0                
13.08                          0.527027717481573 -18.600945406805 0.848751043455806 71.3956848585482 0.848751043455806 71.3956848585482 0.527027717481574 -18.600945406805 
! Gamma         0                0                0                0                
! Port Impedance         50               0                50               0                
13.1                           0.525812455788847 -18.9887436019919 0.849502293264485 71.0072672967647 0.849502293264485 71.0072672967647 0.525812455788847 -18.9887436019919 
! Gamma         0                0                0                0                
! Port Impedance         50               0                50               0                
13.12                          0.524570795003362 -19.3772317952811 0.850267380465504 70.6181551288762 0.850267380465504 70.6181551288762 0.524570795003362 -19.377231795281 
! Gamma         0                0                0                0                
! Port Impedance         50               0                50               0                
13.14                          0.523302619172938 -19.7664231339885 0.851046223383822 70.2283350909364 0.851046223383822 70.2283350909364 0.523302619172938 -19.7664231339885 
! Gamma         0                0                0                0                
! Port Impedance         50               0                50               0                
13.16                          0.522007810694932 -20.1563307211063 0.851838737831571 69.8377939606047 0.851838737831571 69.8377939606047 0.522007810694932 -20.1563307211063 
! Gamma         0                0                0                0                
! Port Impedance         50               0                50               0                
13.18                          0.520686250361653 -20.5469676132017 0.852644837056643 69.4465185591464 0.852644837056642 69.4465185591464 0.520686250361653 -20.5469676132017 
! Gamma         0                0                0                0                
! Port Impedance         50               0                50               0                
13.2                           0.519337817407499 -20.9383468182393 0.853464431690525 69.0544957535066 0.853464431690525 69.0544957535066 0.519337817407499 -20.9383468182393 
! Gamma         0                0                0                0                
! Port Impedance         50               0                50               0                
13.22                          0.51796238955788 -21.330481293328 0.854297429695442 68.6617124584547 0.854297429695442 68.6617124584547 0.51796238955788 -21.330481293328 
! Gamma         0                0                0                0                
! Port Impedance         50               0                50               0                
13.24                          0.516559843079942 -21.7233839423904 0.855143736310803 68.2681556388029 0.855143736310803 68.268155638803  0.516559843079942 -21.7233839423904 
! Gamma         0                0                0                0                
! Port Impedance         50               0                50               0                
13.26                          0.515130052835171 -22.1170676137503 0.85600325399901 67.8738123117009 0.856003253999011 67.8738123117009 0.515130052835171 -22.1170676137503 
! Gamma         0                0                0                0                
! Port Impedance         50               0                50               0                
13.28                          0.513672892333903 -22.5115450976414 0.856875882390638 67.4786695490056 0.856875882390638 67.4786695490056 0.513672892333903 -22.5115450976414 
! Gamma         0                0                0                0                
! Port Impedance         50               0                50               0                
13.3                           0.512188233791804 -22.9068291236312 0.857761518229031 67.08271447973   0.857761518229031 67.08271447973   0.512188233791804 -22.9068291236312 
! Gamma         0                0                0                0                
! Port Impedance         50               0                50               0                
13.32                          0.51067594818835 -23.302932357962 0.858660055314348 66.6859342925706 0.858660055314348 66.6859342925706 0.51067594818835 -23.302932357962 
! Gamma         0                0                0                0                
! Port Impedance         50               0                50               0                
13.34                          0.509135905327381 -23.6998674008041 0.859571384447096 66.2883162385157 0.859571384447097 66.2883162385157 0.509135905327381 -23.6998674008041 
! Gamma         0                0                0                0                
! Port Impedance         50               0                50               0                
13.36                          0.507567973899749 -24.0976467834232 0.860495393371183 65.8898476335349 0.860495393371183 65.8898476335349 0.507567973899749 -24.0976467834232 
! Gamma         0                0                0                0                
! Port Impedance         50               0                50               0                
13.38                          0.505972021548134 -24.4962829652569 0.861431966716544 65.4905158613524 0.861431966716544 65.4905158613524 0.505972021548134 -24.4962829652569 
! Gamma         0                0                0                0                
! Port Impedance         50               0                50               0                
13.4                           0.504347914934063 -24.895788330902 0.86238098594137 65.0903083763045 0.86238098594137 65.0903083763045 0.504347914934063 -24.895788330902 
! Gamma         0                0                0                0                
! Port Impedance         50               0                50               0                
13.42                          0.502695519807182 -25.2961751870084 0.863342329273999 64.6892127062817 0.863342329273999 64.6892127062817 0.502695519807182 -25.2961751870084 
! Gamma         0                0                0                0                
! Port Impedance         50               0                50               0                
13.44                          0.501014701076835 -25.6974557590798 0.864315871654505 64.287216455759  0.864315871654504 64.287216455759  0.501014701076835 -25.6974557590798 
! Gamma         0                0                0                0                
! Port Impedance         50               0                50               0                
13.46                          0.499305322885995 -26.099642188179 0.86530148467604 63.8843073089117 0.865301484676041 63.8843073089117 0.499305322885995 -26.099642188179 
! Gamma         0                0                0                0                
! Port Impedance         50               0                50               0                
13.48                          0.497567248687594 -26.502746527537 0.866299036525995 63.4804730328225 0.866299036525995 63.4804730328225 0.497567248687593 -26.502746527537 
! Gamma         0                0                0                0                
! Port Impedance         50               0                50               0                
13.5                           0.495800341323299 -26.906780739063 0.867308391926999 63.0757014807763 0.867308391926999 63.0757014807763 0.495800341323299 -26.906780739063 
! Gamma         0                0                0                0                
! Port Impedance         50               0                50               0                
13.52                          0.494004463104789 -27.311756689756 0.868329412077866 62.6699805956465 0.868329412077866 62.6699805956465 0.494004463104789 -27.311756689756 
! Gamma         0                0                0                0                
! Port Impedance         50               0                50               0                
13.54                          0.492179475897573 -27.7176861480143 0.869361954594496 62.2632984133739 0.869361954594496 62.2632984133739 0.492179475897573 -27.7176861480143 
! Gamma         0                0                0                0                
! Port Impedance         50               0                50               0                
13.56                          0.49032524120738 -28.1245807798442 0.870405873450836 61.8556430665359 0.870405873450836 61.8556430665359 0.49032524120738 -28.1245807798442 
! Gamma         0                0                0                0                
! Port Impedance         50               0                50               0                
13.58                          0.488441620269206 -28.5324521449633 0.871461018919944 61.4470027880113 0.871461018919944 61.4470027880113 0.488441620269206 -28.5324521449633 
! Gamma         0                0                0                0                
! Port Impedance         50               0                50               0                
13.6                           0.486528474139015 -28.9413116928007 0.872527237515233 61.0373659147373 0.872527237515233 61.0373659147373 0.486528474139015 -28.9413116928007 
! Gamma         0                0                0                0                
! Port Impedance         50               0                50               0                
13.62                          0.484585663788166 -29.3511707583899 0.873604371931957 60.6267208915621 0.873604371931956 60.6267208915621 0.484585663788166 -29.3511707583899 
! Gamma         0                0                0                0                
! Port Impedance         50               0                50               0                
13.64                          0.482613050200601 -29.7620405581547 0.874692260989031 60.2150562751925 0.874692260989031 60.2150562751925 0.482613050200601 -29.7620405581548 
! Gamma         0                0                0                0                
! Port Impedance         50               0                50               0                
13.66                          0.480610494472826 -30.1739321855873 0.875790739571247 59.8023607382365 0.875790739571247 59.8023607382365 0.480610494472826 -30.1739321855873 
! Gamma         0                0                0                0                
! Port Impedance         50               0                50               0                
13.68                          0.478577857916733 -30.586856606815 0.876899638571969 59.388623073343  0.87689963857197 59.388623073343  0.478577857916732 -30.5868566068151 
! Gamma         0                0                0                0                
! Port Impedance         50               0                50               0                
13.7                           0.476515002165292 -31.0008246560586 0.878018784836396 58.9738321974367 0.878018784836396 58.9738321974367 0.476515002165292 -31.0008246560585 
! Gamma         0                0                0                0                
! Port Impedance         50               0                50               0                
13.72                          0.474421789281156 -31.4158470309762 0.879148001105474 58.5579771560508 0.879148001105474 58.5579771560508 0.474421789281156 -31.4158470309762 
! Gamma         0                0                0                0                
! Port Impedance         50               0                50               0                
13.74                          0.472298081868196 -31.8319342878975 0.880287105960554 58.1410471277549 0.880287105960554 58.1410471277549 0.472298081868195 -31.8319342878975 
! Gamma         0                0                0                0                
! Port Impedance         50               0                50               0                
13.76                          0.470143743186016 -32.2490968369413 0.881435913768873 57.7230314286808 0.881435913768873 57.7230314286808 0.470143743186016 -32.2490968369413 
! Gamma         0                0                0                0                
! Port Impedance         50               0                50               0                
13.78                          0.467958637267465 -32.66734493702  0.882594234629979 57.3039195171442 0.882594234629979 57.3039195171442 0.467958637267464 -32.6673449370201 
! Gamma         0                0                0                0                
! Port Impedance         50               0                50               0                
13.8                           0.465742629039157 -33.086688690729 0.883761874323167 56.8837009983625 0.883761874323167 56.8837009983625 0.465742629039158 -33.0866886907289 
! Gamma         0                0                0                0                
! Port Impedance         50               0                50               0                
13.82                          0.463495584445063 -33.5071380391179 0.884938634256064 56.4623656292691 0.884938634256064 56.4623656292692 0.463495584445063 -33.5071380391179 
! Gamma         0                0                0                0                
! Port Impedance         50               0                50               0                
13.84                          0.461217370573138 -33.9287027563469 0.886124311414431 56.0399033234231 0.886124311414431 56.0399033234231 0.461217370573138 -33.9287027563469 
! Gamma         0                0                0                0                
! Port Impedance         50               0                50               0                
13.86                          0.458907855785054 -34.3513924442239 0.88731869831333 55.6163041560129 0.88731869831333 55.6163041560129 0.458907855785054 -34.3513924442239 
! Gamma         0                0                0                0                
! Port Impedance         50               0                50               0                
13.88                          0.456566909849003 -34.7752165266234 0.888521582949724 55.1915583689551 0.888521582949724 55.1915583689551 0.456566909849003 -34.7752165266234 
! Gamma         0                0                0                0                
! Port Impedance         50               0                50               0                
13.9                           0.454194404075627 -35.2001842437865 0.889732748756673 54.7656563760861 0.889732748756672 54.7656563760861 0.454194404075627 -35.2001842437865 
! Gamma         0                0                0                0                
! Port Impedance         50               0                50               0                
13.92                          0.451790211457029 -35.6263046465014 0.890951974559193 54.3385887684453 0.890951974559194 54.3385887684453 0.451790211457029 -35.6263046465015 
! Gamma         0                0                0                0                
! Port Impedance         50               0                50               0                
13.94                          0.449354206808913 -36.0535865901634 0.892179034531953 53.9103463196499 0.892179034531953 53.9103463196499 0.449354206808913 -36.0535865901634 
! Gamma         0                0                0                0                
! Port Impedance         50               0                50               0                
13.96                          0.446886266915823 -36.4820387287133 0.893413698158878 53.4809199913592 0.893413698158878 53.4809199913592 0.446886266915823 -36.4820387287133 
! Gamma         0                0                0                0                
! Port Impedance         50               0                50               0                
13.98                          0.444386270679473 -36.9116695084565 0.894655730194835 53.050300938826  0.894655730194836 53.050300938826  0.444386270679472 -36.9116695084565 
! Gamma         0                0                0                0                
! Port Impedance         50               0                50               0                
14                             0.441854099270172 -37.3424871617582 0.8959048906295  52.6184805165356 0.8959048906295  52.6184805165356 0.441854099270172 -37.3424871617582 
! Gamma         0                0                0                0                
! Port Impedance         50               0                50               0                
14.02                          0.439289636281316 -37.7744997006176 0.897160934653548 52.1854502839279 0.897160934653548 52.1854502839279 0.439289636281316 -37.7744997006176 
! Gamma         0                0                0                0                
! Port Impedance         50               0                50               0                
14.04                          0.436692767886916 -38.2077149101195 0.898423612627308 51.7512020112024 0.898423612627308 51.7512020112024 0.436692767886916 -38.2077149101195 
! Gamma         0                0                0                0                
! Port Impedance         50               0                50               0                
14.06                          0.434063383002158 -38.642140341762 0.899692670052012 51.315727685203  0.899692670052012 51.315727685203  0.434063383002159 -38.642140341762 
! Gamma         0                0                0                0                
! Port Impedance         50               0                50               0                
14.08                          0.431401373446937 -39.077783306661 0.900967847543782 50.8790195153807 0.900967847543782 50.8790195153807 0.431401373446937 -39.077783306661 
! Gamma         0                0                0                0                
! Port Impedance         50               0                50               0                
14.1                           0.428706634112334 -39.5146508686309 0.9022488808105  50.4410699398299 0.9022488808105  50.4410699398299 0.428706634112335 -39.5146508686309 
! Gamma         0                0                0                0                
! Port Impedance         50               0                50               0                
14.12                          0.425979063130006 -39.9527498371403 0.903535500631701 50.001871631398  0.903535500631701 50.001871631398  0.425979063130006 -39.9527498371403 
! Gamma         0                0                0                0                
! Port Impedance         50               0                50               0                
14.14                          0.423218562044402 -40.3920867601421 0.904827432841645 49.5614175038629 0.904827432841644 49.5614175038629 0.423218562044403 -40.3920867601421 
! Gamma         0                0                0                0                
! Port Impedance         50               0                50               0                
14.16                          0.420425035987787 -40.8326679167784 0.906124398315704 49.1197007181763 0.906124398315704 49.1197007181763 0.420425035987788 -40.8326679167784 
! Gamma         0                0                0                0                
! Port Impedance         50               0                50               0                
14.18                          0.417598393857971 -41.2744993099584 0.907426112960236 48.6767146887685 0.907426112960236 48.6767146887685 0.417598393857971 -41.2744993099584 
! Gamma         0                0                0                0                
! Port Impedance         50               0                50               0                
14.2                           0.4147385484987  -41.717586658808 0.908732287706069 48.2324530899116 0.908732287706069 48.2324530899116 0.414738548498701 -41.717586658808 
! Gamma         0                0                0                0                
! Port Impedance         50               0                50               0                
14.22                          0.411845416882613 -42.1619353909915 0.910042628505779 47.7869098621367 0.910042628505779 47.7869098621367 0.411845416882613 -42.1619353909915 
! Gamma         0                0                0                0                
! Port Impedance         50               0                50               0                
14.24                          0.408918920296672 -42.6075506349027 0.911356836334895 47.3400792187004 0.911356836334895 47.3400792187004 0.408918920296672 -42.6075506349027 
! Gamma         0                0                0                0                
! Port Impedance         50               0                50               0                
14.26                          0.405958984529995 -43.0544372117249 0.912674607197198 46.8919556520972 0.912674607197198 46.8919556520972 0.405958984529995 -43.0544372117249 
! Gamma         0                0                0                0                
! Port Impedance         50               0                50               0                
14.28                          0.402965540063958 -43.5025996273569 0.913995632134269 46.442533940612  0.913995632134268 46.442533940612  0.402965540063959 -43.5025996273569 
! Gamma         0                0                0                0                
! Port Impedance         50               0                50               0                
14.3                           0.399938522264472 -43.952042064204 0.915319597239432 45.9918091549076 0.915319597239433 45.9918091549076 0.399938522264472 -43.9520420642041 
! Gamma         0                0                0                0                
! Port Impedance         50               0                50               0                
14.32                          0.396877871576313 -44.4027683728316 0.916646183676272 45.5397766646433 0.916646183676272 45.5397766646434 0.396877871576313 -44.4027683728316 
! Gamma         0                0                0                0                
! Port Impedance         50               0                50               0                
14.34                          0.393783533719375 -44.854782063476 0.91797506770185 45.0864321451178 0.91797506770185 45.0864321451178 0.393783533719375 -44.854782063476 
! Gamma         0                0                0                0                
! Port Impedance         50               0                50               0                
14.36                          0.390655459886706 -45.3080862974134 0.919305920694806 44.6317715839299 0.919305920694805 44.6317715839299 0.390655459886706 -45.3080862974134 
! Gamma         0                0                0                0                
! Port Impedance         50               0                50               0                
14.38                          0.387493606944182 -45.7626838781788 0.920638409188479 44.1757912876534 0.920638409188478 44.1757912876534 0.387493606944182 -45.7626838781788 
! Gamma         0                0                0                0                
! Port Impedance         50               0                50               0                
14.4                           0.38429793763167 -46.2185772426322 0.921972194909209 43.7184878885178 0.921972194909209 43.7184878885178 0.38429793763167 -46.2185772426322 
! Gamma         0                0                0                0                
! Port Impedance         50               0                50               0                
14.42                          0.381068420765504 -46.6757684518674 0.923306934819972 43.2598583510886 0.923306934819972 43.2598583510886 0.381068420765504 -46.6757684518674 
! Gamma         0                0                0                0                
! Port Impedance         50               0                50               0                
14.44                          0.377805031442111 -47.134259181954 0.924642281169479 42.799899978941  0.924642281169479 42.799899978941  0.377805031442111 -47.1342591819541 
! Gamma         0                0                0                0                
! Port Impedance         50               0                50               0                
14.46                          0.374507751242594 -47.5940507145094 0.925977881546926 42.3386104213191 0.925977881546926 42.3386104213191 0.374507751242594 -47.5940507145094 
! Gamma         0                0                0                0                
! Port Impedance         50               0                50               0                
14.48                          0.371176568438092 -48.0551439270882 0.927313378942487 41.8759876797744 0.927313378942487 41.8759876797744 0.371176568438092 -48.0551439270882 
! Gamma         0                0                0                0                
! Port Impedance         50               0                50               0                
14.5                           0.367811478195701 -48.5175392833826 0.928648411813732 41.4120301147739 0.928648411813732 41.4120301147739 0.367811478195701 -48.5175392833826 
! Gamma         0                0                0                0                
! Port Impedance         50               0                50               0                
14.52                          0.364412482784752 -48.9812368232202 0.929982614158084 40.946736452272  0.929982614158083 40.946736452272  0.364412482784752 -48.9812368232202 
! Gamma         0                0                0                0                
! Port Impedance         50               0                50               0                
14.54                          0.360979591783227 -49.4462361523476 0.931315615591447 40.4801057902371 0.931315615591447 40.4801057902371 0.360979591783227 -49.4462361523476 
! Gamma         0                0                0                0                
! Port Impedance         50               0                50               0                
14.56                          0.357512822284071 -49.9125364319841 0.932647041433146 40.0121376051246 0.932647041433146 40.0121376051246 0.357512822284071 -49.9125364319841 
! Gamma         0                0                0                0                
! Port Impedance         50               0                50               0                
14.58                          0.354012199101176 -50.380136368129 0.933976512797283 39.5428317582868 0.933976512797283 39.5428317582868 0.354012199101176 -50.3801363681291 
! Gamma         0                0                0                0                
! Port Impedance         50               0                50               0                
14.6                           0.350477754974773 -50.8490342006025 0.935303646690625 39.0721885023135 0.935303646690625 39.0721885023135 0.350477754974773 -50.8490342006025 
! Gamma         0                0                0                0                
! Port Impedance         50               0                50               0                
14.62                          0.346909530775979 -51.3192276917986 0.936628056117158 38.6002084872901 0.936628056117158 38.6002084872901 0.346909530775979 -51.3192276917986 
! Gamma         0                0                0                0                
! Port Impedance         50               0                50               0                
14.64                          0.34330757571023 -51.790714115124 0.937949350189362 38.1268927669677 0.937949350189363 38.1268927669677 0.34330757571023 -51.790714115124 
! Gamma         0                0                0                0                
! Port Impedance         50               0                50               0                
14.66                          0.339671947519328 -52.2634902430942 0.939267134246354 37.6522428048333 0.939267134246353 37.6522428048333 0.339671947519328 -52.2634902430942 
! Gamma         0                0                0                0                
! Port Impedance         50               0                50               0                
14.68                          0.336002712681802 -52.7375523350536 0.940581009978933 37.1762604800707 0.940581009978933 37.1762604800707 0.336002712681801 -52.7375523350537 
! Gamma         0                0                0                0                
! Port Impedance         50               0                50               0                
14.7                           0.332299946611304 -53.2128961244817 0.941890575561653 36.6989480934035 0.941890575561652 36.6989480934035 0.332299946611305 -53.2128961244817 
! Gamma         0                0                0                0                
! Port Impedance         50               0                50               0                
14.72                          0.328563733852729 -53.6895168058433 0.943195425791947 36.2203083728075 0.943195425791947 36.2203083728075 0.328563733852729 -53.6895168058433 
! Gamma         0                0                0                0                
! Port Impedance         50               0                50               0                
14.74                          0.324794168275748 -54.1674090209326 0.944495152236397 35.7403444790848 0.944495152236397 35.7403444790848 0.324794168275748 -54.1674090209326 
! Gamma         0                0                0                0                
! Port Impedance         50               0                50               0                
14.76                          0.320991353265438 -54.6465668446556 0.945789343384165 35.2590600112873 0.945789343384165 35.2590600112873 0.320991353265439 -54.6465668446555 
! Gamma         0                0                0                0                
! Port Impedance         50               0                50               0                
14.78                          0.317155401909686 -55.1269837701886 0.947077584807653 34.77645901198   0.947077584807653 34.77645901198   0.317155401909686 -55.1269837701886 
! Gamma         0                0                0                0                
! Port Impedance         50               0                50               0                
14.8                           0.31328643718302 -55.6086526934392 0.94835945933039 34.2925459723319 0.94835945933039 34.2925459723319 0.31328643718302 -55.6086526934392 
! Gamma         0                0                0                0                
! Port Impedance         50               0                50               0                
14.82                          0.309384592126552 -56.0915658967273 0.949634547202176 33.8073258370258 0.949634547202176 33.8073258370258 0.309384592126553 -56.0915658967272 
! Gamma         0                0                0                0                
! Port Impedance         50               0                50               0                
14.84                          0.305450010023671 -56.5757150315925 0.950902426281475 33.3208040089743 0.950902426281475 33.3208040089742 0.305450010023671 -56.5757150315926 
! Gamma         0                0                0                0                
! Port Impedance         50               0                50               0                
14.86                          0.301482844571128 -57.0610911006232 0.952162672225051 32.8329863538304 0.952162672225051 32.8329863538304 0.301482844571128 -57.0610911006233 
! Gamma         0                0                0                0                
! Port Impedance         50               0                50               0                
14.88                          0.297483260045197 -57.5476844381787 0.953414858684808 32.3438792042847 0.953414858684809 32.3438792042847 0.297483260045197 -57.5476844381787 
! Gamma         0                0                0                0                
! Port Impedance         50               0                50               0                
14.9                           0.293451431462498 -58.0354846898716 0.954658557511813 31.853489364134  0.954658557511812 31.853489364134  0.293451431462499 -58.0354846898716 
! Gamma         0                0                0                0                
! Port Impedance         50               0                50               0                
14.92                          0.289387544735172 -58.5244807906475 0.955893338967421 31.3618241121126 0.955893338967421 31.3618241121125 0.289387544735172 -58.5244807906475 
! Gamma         0                0                0                0                
! Port Impedance         50               0                50               0                
14.94                          0.285291796820006 -59.0146609412781 0.957118771941467 30.8688912054748 0.957118771941468 30.8688912054748 0.285291796820007 -59.0146609412782 
! Gamma         0                0                0                0                
! Port Impedance         50               0                50               0                
14.96                          0.281164395861168 -59.5060125830608 0.958334424177399 30.3746988833171 0.958334424177399 30.3746988833171 0.281164395861168 -59.5060125830608 
! Gamma         0                0                0                0                
! Port Impedance         50               0                50               0                
14.98                          0.277005561326161 -59.998522370481 0.959539862504277 29.8792558696288 0.959539862504277 29.8792558696288 0.277005561326161 -59.998522370481 
! Gamma         0                0                0                0                
! Port Impedance         50               0                50               0                
15                             0.272815524134654 -60.4921761415648 0.960734653075521 29.3825713760604 0.960734653075521 29.3825713760604 0.272815524134654 -60.4921761415648 
! Gamma         0                0                0                0                
! Port Impedance         50               0                50               0                
15.02                          0.268594526779797 -60.9869588855992 0.961918361614255 28.8846551043985 0.961918361614255 28.8846551043985 0.268594526779797 -60.9869588855992 
! Gamma         0                0                0                0                
! Port Impedance         50               0                50               0                
15.04                          0.264342823441682 -61.4828547078561 0.963090553665112 28.3855172487375 0.963090553665112 28.3855172487375 0.264342823441683 -61.482854707856 
! Gamma         0                0                0                0                
! Port Impedance         50               0                50               0                
15.06                          0.260060680092564 -61.979846790895 0.964250794852325 27.8851684973355 0.964250794852325 27.8851684973355 0.260060680092564 -61.9798467908951 
! Gamma         0                0                0                0                
! Port Impedance         50               0                50               0                
15.08                          0.255748374593495 -62.4779173519527 0.965398651143924 27.3836200341459 0.965398651143925 27.3836200341459 0.255748374593495 -62.4779173519529 
! Gamma         0                0                0                0                
! Port Impedance         50               0                50               0                
15.1                           0.251406196782024 -62.9770475958523 0.966533689121823 26.8808835400133 0.966533689121823 26.8808835400133 0.251406196782024 -62.9770475958523 
! Gamma         0                0                0                0                
! Port Impedance         50               0                50               0                
15.12                          0.247034448550598 -63.4772176627666 0.967655476257589 26.3769711935242 0.967655476257589 26.3769711935242 0.247034448550598 -63.4772176627666 
! Gamma         0                0                0                0                
! Port Impedance         50               0                50               0                
15.14                          0.24263344391534 -63.978406570068 0.968763581193654 25.8718956715026 0.968763581193654 25.8718956715026 0.24263344391534 -63.9784065700679 
! Gamma         0                0                0                0                
! Port Impedance         50               0                50               0                
15.16                          0.238203509074862 -64.4805921473579 0.969857574029701 25.3656701491416 0.969857574029702 25.3656701491416 0.238203509074862 -64.4805921473579 
! Gamma         0                0                0                0                
! Port Impedance         50               0                50               0                
15.18                          0.233744982458795 -64.9837509636242 0.970937026613967 24.8583082997611 0.970937026613967 24.8583082997611 0.233744982458795 -64.9837509636242 
! Gamma         0                0                0                0                
! Port Impedance         50               0                50               0                
15.2                           0.229258214765727 -65.4878582452793 0.972001512839151 24.3498242941835 0.972001512839151 24.3498242941835 0.229258214765727 -65.4878582452794 
! Gamma         0                0                0                0                
! Port Impedance         50               0                50               0                
15.22                          0.224743568990236 -65.9928877836203 0.973050608942649 23.8402327997194 0.973050608942649 23.8402327997194 0.224743568990236 -65.9928877836203 
! Gamma         0                0                0                0                
! Port Impedance         50               0                50               0                
15.24                          0.220201420438753 -66.498811829976 0.974083893810749 23.329548978754  0.974083893810749 23.329548978754  0.220201420438754 -66.498811829976 
! Gamma         0                0                0                0                
! Port Impedance         50               0                50               0                
15.26                          0.215632156733976 -67.0056009764885 0.975100949286481 22.8177884869293 0.975100949286482 22.8177884869293 0.215632156733976 -67.0056009764885 
! Gamma         0                0                0                0                
! Port Impedance         50               0                50               0                
15.28                          0.211036177807565 -67.5132240200861 0.976101360480739 22.3049674709123 0.976101360480739 22.3049674709123 0.211036177807565 -67.5132240200861 
! Gamma         0                0                0                0                
! Port Impedance         50               0                50               0                
15.3                           0.206413895880917 -68.021647806722 0.977084716086306 21.7911025657447 0.977084716086306 21.7911025657447 0.206413895880917 -68.021647806722 
! Gamma         0                0                0                0                
! Port Impedance         50               0                50               0                
15.32                          0.201765735433781 -68.5308370523737 0.978050608694392 21.2762108917683 0.978050608694392 21.2762108917683 0.201765735433781 -68.5308370523737 
! Gamma         0                0                0                0                
! Port Impedance         50               0                50               0                
15.34                          0.197092133160526 -69.0407541365815 0.978998635113277 20.7603100511196 0.978998635113278 20.7603100511195 0.197092133160526 -69.0407541365815 
! Gamma         0                0                0                0                
! Port Impedance         50               0                50               0                
15.36                          0.192393537913905 -69.5513588634103 0.979928396688638 20.2434181237894 0.979928396688638 20.2434181237894 0.192393537913905 -69.5513588634103 
! Gamma         0                0                0                0                
! Port Impedance         50               0                50               0                
15.38                          0.187670410636163 -70.0626081836264 0.980839499625118 19.7255536632443 0.980839499625119 19.7255536632443 0.187670410636163 -70.0626081836264 
! Gamma         0                0                0                0                
! Port Impedance         50               0                50               0                
15.4                           0.1829232242774  -70.5744558704951 0.98173155530871 19.2067356916058 0.981731555308709 19.2067356916058 0.182923224277399 -70.574455870495 
! Gamma         0                0                0                0                
! Port Impedance         50               0                50               0                
15.42                          0.178152463701076 -71.0868521398892 0.982604180629463 18.6869836943831 0.982604180629462 18.6869836943831 0.178152463701076 -71.0868521398892 
! Gamma         0                0                0                0                
! Port Impedance         50               0                50               0                
15.44                          0.17335862557668 -71.5997432032003 0.983456998304071 18.1663176147614 0.983456998304071 18.1663176147614 0.173358625576679 -71.5997432032003 
! Gamma         0                0                0                0                
! Port Impedance         50               0                50               0                
15.46                          0.168542218259504 -72.1130707387858 0.98428963719784 17.6447578474395 0.984289637197839 17.6447578474396 0.168542218259505 -72.1130707387858 
! Gamma         0                0                0                0                
! Port Impedance         50               0                50               0                
15.48                          0.163703761657638 -72.62677126412  0.98510173264555 17.1223252320203 0.98510173264555 17.1223252320203 0.163703761657638 -72.6267712641201 
! Gamma         0                0                0                0                
! Port Impedance         50               0                50               0                
15.5                           0.158843787086255 -73.1407753862494 0.985892926770714 16.5990410459517 0.985892926770714 16.5990410459517 0.158843787086255 -73.1407753862494 
! Gamma         0                0                0                0                
! Port Impedance         50               0                50               0                
15.52                          0.153962837109397 -73.6550069022068 0.986662868802721 16.07492699702   0.986662868802721 16.07492699702   0.153962837109396 -73.6550069022069 
! Gamma         0                0                0                0                
! Port Impedance         50               0                50               0                
15.54                          0.149061465369524 -74.1693817132633 0.987411215391349 15.5500052153988 0.98741121539135 15.5500052153988 0.149061465369523 -74.1693817132635 
! Gamma         0                0                0                0                
! Port Impedance         50               0                50               0                
15.56                          0.144140236405175 -74.683806506641 0.988137630918145 15.0242982452524 0.988137630918145 15.0242982452524 0.144140236405176 -74.6838065066409 
! Gamma         0                0                0                0                
! Port Impedance         50               0                50               0                
15.58                          0.139199725457269 -75.1981771446465 0.988841787804123 14.4978290359019 0.988841787804123 14.4978290359019 0.139199725457269 -75.1981771446466 
! Gamma         0                0                0                0                
! Port Impedance         50               0                50               0                
15.6                           0.134240518264655 -75.7123766828376 0.989523366813278 13.9706209325539 0.989523366813278 13.9706209325539 0.134240518264655 -75.7123766828376 
! Gamma         0                0                0                0                
! Port Impedance         50               0                50               0                
15.62                          0.129263210849815 -76.2262729139069 0.990182057351388 13.4426976665994 0.990182057351388 13.4426976665995 0.129263210849815 -76.226272913907 
! Gamma         0                0                0                0                
! Port Impedance         50               0                50               0                
15.64                          0.124268409295846 -76.7397152997758 0.990817557759563 12.9140833454894 0.990817557759563 12.9140833454894 0.124268409295846 -76.7397152997758 
! Gamma         0                0                0                0                
! Port Impedance         50               0                50               0                
15.66                          0.119256729516198 -77.2525311069061 0.991429575602048 12.3848024421901 0.991429575602048 12.3848024421901 0.119256729516198 -77.2525311069061 
! Gamma         0                0                0                0                
! Port Impedance         50               0                50               0                
15.68                          0.114228797019258 -77.764520493071 0.992017827947727 11.8548797842305 0.992017827947727 11.8548797842305 0.114228797019258 -77.7645204930709 
! Gamma         0                0                0                0                
! Port Impedance         50               0                50               0                
15.7                           0.109185246670448 -78.2754501986845 0.992582041644836 11.3243405423471 0.992582041644835 11.3243405423471 0.109185246670448 -78.2754501986845 
! Gamma         0                0                0                0                
! Port Impedance         50               0                50               0                
15.72                          0.10412672245565 -78.7850453581755 0.993121953588375 10.7932102187361 0.993121953588375 10.7932102187361 0.10412672245565 -78.7850453581756 
! Gamma         0                0                0                0                
! Port Impedance         50               0                50               0                
15.74                          0.0990538772511931 -79.2929787446752 0.99363731097971 10.2615146349238 0.993637310979709 10.2615146349238 0.0990538772511931 -79.2929787446751 
! Gamma         0                0                0                0                
! Port Impedance         50               0                50               0                
15.76                          0.0939673726078588 -79.7988564588838 0.994127871577875 9.72927991926455 0.994127871577876 9.72927991926455 0.0939673726078588 -79.798856458884 
! Gamma         0                0                0                0                
! Port Impedance         50               0                50               0                
15.78                          0.0888678785597761 -80.3021986120667 0.99459340394211 9.1965324940804  0.99459340394211 9.1965324940804  0.088867878559776 -80.3021986120665 
! Gamma         0                0                0                0                
! Port Impedance         50               0                50               0                
15.8                           0.0837560734742064 -80.8024128356265 0.995033687665134 8.6632990624519  0.995033687665134 8.66329906245189 0.0837560734742063 -80.8024128356267 
! Gamma         0                0                0                0                
! Port Impedance         50               0                50               0                
15.82                          0.0786326439665975 -81.2987573064853 0.995448513596734 8.12960659467563 0.995448513596734 8.12960659467563 0.0786326439665974 -81.2987573064853 
! Gamma         0                0                0                0                
! Port Impedance         50               0                50               0                
15.84                          0.073498284918781 -81.7902881081291 0.995837684057217 7.59548231440118 0.995837684057217 7.59548231440118 0.073498284918781 -81.7902881081289 
! Gamma         0                0                0                0                
! Port Impedance         50               0                50               0                
15.86                          0.06835369966101 -82.2757826001672 0.99620101304028 7.06095368446328 0.99620101304028 7.06095368446328 0.06835369966101 -82.2757826001673 
! Gamma         0                0                0                0                
! Port Impedance         50               0                50               0                
15.88                          0.0631996004181307 -82.7536249948793 0.99653832640494 6.52604839242314 0.99653832640494 6.52604839242315 0.0631996004181308 -82.753624994879 
! Gamma         0                0                0                0                
! Port Impedance         50               0                50               0                
15.9                           0.0580367091917491 -83.2216304537579 0.99684946205609 5.99079433583588 0.99684946205609 5.99079433583587 0.0580367091917492 -83.2216304537577 
! Gamma         0                0                0                0                
! Port Impedance         50               0                50               0                
15.92                          0.0528657593850805 -83.6767653834221 0.997134270113346 5.45521960726084 0.997134270113346 5.45521960726084 0.0528657593850805 -83.676765383422 
! Gamma         0                0                0                0                
! Port Impedance         50               0                50               0                
15.94                          0.0476874987443277 -84.1146846893705 0.997392613067836 4.91935247903063 0.997392613067835 4.91935247903063 0.0476874987443277 -84.1146846893708 
! Gamma         0                0                0                0                
! Port Impedance         50               0                50               0                
15.96                          0.0425026947519583 -84.5289291585793 0.997624365926593 4.38322138779973 0.997624365926592 4.38322138779973 0.0425026947519584 -84.5289291585788 
! Gamma         0                0                0                0                
! Port Impedance         50               0                50               0                
15.98                          0.0373121448734502 -84.90945118783  0.997829416344282 3.84685491888652 0.997829416344282 3.84685491888652 0.0373121448734501 -84.9094511878302 
! Gamma         0                0                0                0                
! Port Impedance         50               0                50               0                
16                             0.0321166971723336 -85.2397070265146 0.998007664741964 3.31028179043156 0.998007664741964 3.31028179043157 0.0321166971723336 -85.2397070265148 
! Gamma         0                0                0                0                
! Port Impedance         50               0                50               0                
16.02                          0.0269172953396256 -85.4903755503266 0.998159024412664 2.7735308373896  0.998159024412665 2.7735308373896  0.0269172953396256 -85.4903755503272 
! Gamma         0                0                0                0                
! Port Impedance         50               0                50               0                
16.04                          0.0217150891177515 -85.6040457559416 0.998283421613524 2.23663099537401 0.998283421613525 2.23663099537401 0.0217150891177515 -85.6040457559416 
! Gamma         0                0                0                0                
! Port Impedance         50               0                50               0                
16.06                          0.0165117544094421 -85.4509656774282 0.998380795644332 1.69961128437613 0.998380795644332 1.69961128437613 0.0165117544094421 -85.4509656774265 
! Gamma         0                0                0                0                
! Port Impedance         50               0                50               0                
16.08                          0.0113106979192515 -84.662877427275 0.998451098912286 1.16250079237678 0.998451098912286 1.16250079237678 0.0113106979192515 -84.6628774272769 
! Gamma         0                0                0                0                
! Port Impedance         50               0                50               0                
16.1                           0.00612439450547445 -81.6248478323636 0.998494296982839 0.625328658872943 0.998494296982839 0.625328658872942 0.00612439450547446 -81.6248478323636 
! Gamma         0                0                0                0                
! Port Impedance         50               0                50               0                
16.12                          0.00119067693963124 -45.8345014992247 0.998510368616524 0.0881240583391586 0.998510368616523 0.0881240583391586 0.00119067693963133 -45.8345014992204 
! Gamma         0                0                0                0                
! Port Impedance         50               0                50               0                
16.14                          0.00443623880315176 78.7596736354128 0.998499305791681 -0.449083816355988 0.998499305791681 -0.449083816355987 0.00443623880315171 78.759673635416  
! Gamma         0                0                0                0                
! Port Impedance         50               0                50               0                
16.16                          0.00960648792954148 84.0400862465985 0.998461113713042 -0.986265770555502 0.998461113713043 -0.986265770555501 0.00960648792954147 84.0400862465985 
! Gamma         0                0                0                0                
! Port Impedance         50               0                50               0                
16.18                          0.0148050289390635 85.2432700321556 0.998395810806144 -1.5233926244231 0.998395810806144 -1.5233926244231 0.0148050289390635 85.2432700321551 
! Gamma         0                0                0                0                
! Port Impedance         50               0                50               0                
16.2                           0.0200080023247792 85.5415834282249 0.998303428697597 -2.06043522953283 0.998303428697597 -2.06043522953282 0.0200080023247792 85.5415834282249 
! Gamma         0                0                0                0                
! Port Impedance         50               0                50               0                
16.22                          0.0252106088838215 85.4951109681739 0.998184012181235 -2.59736448541914 0.998184012181236 -2.59736448541914 0.0252106088838215 85.4951109681742 
! Gamma         0                0                0                0                
! Port Impedance         50               0                50               0                
16.24                          0.0304108293946941 85.2809242983265 0.998037619170238 -3.13415135606608 0.998037619170237 -3.13415135606608 0.0304108293946942 85.280924298326  
! Gamma         0                0                0                0                
! Port Impedance         50               0                50               0                
16.26                          0.0356073961488824 84.9726457394295 0.997864320635299 -3.67076688631542 0.997864320635299 -3.67076688631542 0.0356073961488823 84.9726457394299 
! Gamma         0                0                0                0                
! Port Impedance         50               0                50               0                
16.28                          0.0407993157466749 84.6063675205342 0.997664200529   -4.20718221817307 0.997664200529   -4.20718221817307 0.0407993157466749 84.606367520534  
! Gamma         0                0                0                0                
! Port Impedance         50               0                50               0                
16.3                           0.0459857159099047 84.2018679958344 0.997437355696529 -4.74336860699197 0.997437355696529 -4.74336860699197 0.0459857159099048 84.2018679958341 
! Gamma         0                0                0                0                
! Port Impedance         50               0                50               0                
16.32                          0.0511657859336742 83.7708983633291 0.997183895772931 -5.27929743751444 0.997183895772932 -5.27929743751444 0.0511657859336742 83.7708983633292 
! Gamma         0                0                0                0                
! Port Impedance         50               0                50               0                
16.34                          0.0563387503261526 83.3208843553867 0.996903943067121 -5.81494023975132 0.996903943067121 -5.81494023975132 0.0563387503261526 83.3208843553866 
! Gamma         0                0                0                0                
! Port Impedance         50               0                50               0                
16.36                          0.0615038560157394 82.8567525472795 0.996597632432875 -6.35026870468015 0.996597632432875 -6.35026870468015 0.0615038560157394 82.8567525472795 
! Gamma         0                0                0                0                
! Port Impedance         50               0                50               0                
16.38                          0.066660365726315 82.3819033934281 0.996265111127101 -6.88525469974336 0.996265111127101 -6.88525469974337 0.066660365726315 82.3819033934279 
! Gamma         0                0                0                0                
! Port Impedance         50               0                50               0                
16.4                           0.0718075543973246 81.898762470409  0.995906538655637 -7.41987028412829 0.995906538655637 -7.41987028412829 0.0718075543973246 81.8987624704091 
! Gamma         0                0                0                0                
! Port Impedance         50               0                50               0                
16.42                          0.0769447072086471 81.409108856403  0.995522086606935 -7.95408772380943 0.995522086606935 -7.95408772380944 0.0769447072086472 81.409108856403  
! Gamma         0                0                0                0                
! Port Impedance         50               0                50               0                
16.44                          0.0820711184972114 80.9142791245688 0.995111938473949 -8.48787950633806 0.995111938473948 -8.48787950633805 0.0820711184972115 80.9142791245688 
! Gamma         0                0                0                0                
! Port Impedance         50               0                50               0                
16.46                          0.0871860911907911 80.4152986511984 0.994676289464578 -9.02121835536149 0.994676289464577 -9.02121835536149 0.0871860911907912 80.4152986511981 
! Gamma         0                0                0                0                
! Port Impedance         50               0                50               0                
16.48                          0.0922889365521482 79.9129687574432 0.994215346301078 -9.55407724485434 0.994215346301078 -9.55407724485434 0.0922889365521482 79.9129687574435 
! Gamma         0                0                0                0                
! Port Impedance         50               0                50               0                
16.5                           0.0973789741143636 79.4079260943437 0.993729327008807 -10.0864294130483 0.993729327008807 -10.0864294130483 0.0973789741143636 79.4079260943436 
! Gamma         0                0                0                0                
! Port Impedance         50               0                50               0                
16.52                          0.102455531736058 78.9006840643668 0.993218460694754 -10.6182483760458 0.993218460694754 -10.6182483760458 0.102455531736058 78.9006840643667 
! Gamma         0                0                0                0                
! Port Impedance         50               0                50               0                
16.54                          0.107517945732406 78.3916623133957 0.992682987316259 -11.1495079411001 0.992682987316259 -11.1495079411001 0.107517945732406 78.3916623133955 
! Gamma         0                0                0                0                
! Port Impedance         50               0                50               0                
16.56                          0.112565561053912 77.881208116906  0.992123157440401 -11.6801822195533 0.992123157440401 -11.6801822195533 0.112565561053912 77.8812081169059 
! Gamma         0                0                0                0                
! Port Impedance         50               0                50               0                
16.58                          0.117597731494587 77.3696121447694 0.991539231994508 -12.2102456394161 0.991539231994508 -12.2102456394161 0.117597731494587 77.3696121447693 
! Gamma         0                0                0                0                
! Port Impedance         50               0                50               0                
16.6                           0.122613819917232 76.8571202554183 0.990931482008258 -12.7396729575777 0.990931482008258 -12.7396729575777 0.122613819917232 76.8571202554182 
! Gamma         0                0                0                0                
! Port Impedance         50               0                50               0                
16.62                          0.127613198487423 76.34394243846   0.990300188347882 -13.2684392716374 0.990300188347882 -13.2684392716374 0.127613198487423 76.34394243846   
! Gamma         0                0                0                0                
! Port Impedance         50               0                50               0                
16.64                          0.132595248910314 75.8302596783636 0.989645641442939 -13.7965200313446 0.989645641442939 -13.7965200313446 0.132595248910314 75.8302596783634 
! Gamma         0                0                0                0                
! Port Impedance         50               0                50               0                
16.66                          0.137559362666056 75.3162292815466 0.988968141006202 -14.3238910496393 0.988968141006202 -14.3238910496393 0.137559362666056 75.3162292815467 
! Gamma         0                0                0                0                
! Port Impedance         50               0                50               0                
16.68                          0.142504941240822 74.8019890533453 0.98826799574714 -14.8505285132837 0.98826799574714 -14.8505285132837 0.142504941240822 74.8019890533452 
! Gamma         0                0                0                0                
! Port Impedance         50               0                50               0                
16.7                           0.147431396351198 74.2876606041402 0.987545523079527 -15.3764089930792 0.987545523079527 -15.3764089930792 0.147431396351198 74.2876606041401 
! Gamma         0                0                0                0                
! Port Impedance         50               0                50               0                
16.72                          0.15233815016027 73.7733519890432 0.986801048823706 -15.9015094536581 0.986801048823706 -15.9015094536581 0.15233815016027 73.7733519890433 
! Gamma         0                0                0                0                
! Port Impedance         50               0                50               0                
16.74                          0.157224635484201 73.2591598325172 0.986034906904017 -16.4258072628478 0.986034906904017 -16.4258072628478 0.157224635484201 73.2591598325172 
! Gamma         0                0                0                0                
! Port Impedance         50               0                50               0                
16.76                          0.1620902959883  72.7451710512744 0.985247439041923 -16.9492802005997 0.985247439041923 -16.9492802005997 0.1620902959883  72.7451710512744 
! Gamma         0                0                0                0                
! Port Impedance         50               0                50               0                
16.78                          0.166934586371924 72.2314642611819 0.984438994445368 -17.4719064674791 0.984438994445368 -17.4719064674791 0.166934586371924 72.2314642611818 
! Gamma         0                0                0                0                
! Port Impedance         50               0                50               0                
16.8                           0.171756972541638 71.7181109336374 0.983609929494863 -17.9936646927134 0.983609929494863 -17.9936646927134 0.171756972541638 71.7181109336374 
! Gamma         0                0                0                0                
! Port Impedance         50               0                50               0                
16.82                          0.17655693177224 71.2051763518469 0.982760607426845 -18.5145339417937 0.982760607426846 -18.5145339417937 0.17655693177224 71.205176351847  
! Gamma         0                0                0                0                
! Port Impedance         50               0                50               0                
16.84                          0.181333952855372 70.6927204061753 0.98189139801482 -19.0344937236305 0.98189139801482 -19.0344937236305 0.181333952855372 70.6927204061752 
! Gamma         0                0                0                0                
! Port Impedance         50               0                50               0                
16.86                          0.186087536235476 70.1807982592359 0.981002677248776 -19.5535239972598 0.981002677248776 -19.5535239972598 0.186087536235475 70.1807982592358 
! Gamma         0                0                0                0                
! Port Impedance         50               0                50               0                
16.88                          0.190817194133005 69.6694609049009 0.980094827013396 -20.0716051781015 0.980094827013396 -20.0716051781015 0.190817194133005 69.6694609049009 
! Gamma         0                0                0                0                
! Port Impedance         50               0                50               0                
16.9                           0.195522450654774 69.1587556404346 0.979168234765556 -20.5887181437679 0.979168234765556 -20.5887181437679 0.195522450654774 69.1587556404345 
! Gamma         0                0                0                0                
! Port Impedance         50               0                50               0                
16.92                          0.200202841891467 68.6487264670863 0.978223293211579 -21.1048442394264 0.978223293211578 -21.1048442394264 0.200202841891467 68.6487264670863 
! Gamma         0                0                0                0                
! Port Impedance         50               0                50               0                
16.94                          0.2048579160023  68.1394144314884 0.977260399984736 -21.6199652827163 0.977260399984736 -21.6199652827163 0.2048579160023  68.1394144314884 
! Gamma         0                0                0                0                
! Port Impedance         50               0                50               0                
16.96                          0.20948723328691 67.63085791783   0.976279957323452 -22.1340635682212 0.976279957323452 -22.1340635682212 0.20948723328691 67.63085791783   
! Gamma         0                0                0                0                
! Port Impedance         50               0                50               0                
16.98                          0.214090366244586 67.1230928989199 0.97528237175066 -22.6471218715047 0.97528237175066 -22.6471218715047 0.214090366244587 67.1230928989199 
! Gamma         0                0                0                0                
! Port Impedance         50               0                50               0                
17                             0.218666899620952 66.6161531527722 0.974268053754757 -23.1591234527071 0.974268053754757 -23.1591234527071 0.218666899620952 66.6161531527722 
! Gamma         0                0                0                0                
! Port Impedance         50               0                50               0                
17.02                          0.22321643044227 66.110070450158  0.973237417472566 -23.6700520597139 0.973237417472566 -23.6700520597139 0.22321643044227 66.110070450158  
! Gamma         0                0                0                0                
! Port Impedance         50               0                50               0                
17.04                          0.227738568037552 65.6048747176184 0.972190880374731 -24.1798919308957 0.972190880374731 -24.1798919308957 0.227738568037552 65.6048747176184 
! Gamma         0                0                0                0                
! Port Impedance         50               0                50               0                
17.06                          0.232232934048688 65.1005941796645 0.971128862953931 -24.6886277974294 0.971128862953931 -24.6886277974294 0.232232934048688 65.1005941796645 
! Gamma         0                0                0                0                
! Port Impedance         50               0                50               0                
17.08                          0.236699162428815 64.5972554832654 0.970051788416298 -25.1962448852054 0.970051788416298 -25.1962448852054 0.236699162428815 64.5972554832655 
! Gamma         0                0                0                0                
! Port Impedance         50               0                50               0                
17.1                           0.241136899429174 64.0948838072153 0.968960082376396 -25.7027289163257 0.968960082376395 -25.7027289163257 0.241136899429174 64.0948838072152 
! Gamma         0                0                0                0                
! Port Impedance         50               0                50               0                
17.12                          0.245545803574739 63.5935029585511 0.967854172556101 -26.208066110205 0.967854172556102 -26.208066110205 0.24554580357474 63.5935029585511 
! Gamma         0                0                0                0                
! Port Impedance         50               0                50               0                
17.14                          0.249925545628872 63.0931354578563 0.966734488487747 -26.7122431842771 0.966734488487747 -26.7122431842771 0.249925545628872 63.0931354578563 
! Gamma         0                0                0                0                
! Port Impedance         50               0                50               0                
17.16                          0.254275808547322 62.5938026149901 0.965601461221793 -27.2152473543188 0.965601461221793 -27.2152473543188 0.254275808547322 62.5938026149902 
! Gamma         0                0                0                0                
! Port Impedance         50               0                50               0                
17.18                          0.258596287421862 62.0955245965586 0.964455523039362 -27.7170663343978 0.964455523039363 -27.7170663343978 0.258596287421862 62.0955245965586 
! Gamma         0                0                0                0                
! Port Impedance         50               0                50               0                
17.2                           0.262886689413904 61.5983204862356 0.963297107169899 -28.2176883364546 0.963297107169898 -28.2176883364546 0.262886689413904 61.5983204862355 
! Gamma         0                0                0                0                
! Port Impedance         50               0                50               0                
17.22                          0.267146733678391 61.1022083388893 0.962126647514204 -28.7171020695271 0.962126647514203 -28.7171020695271 0.267146733678391 61.1022083388893 
! Gamma         0                0                0                0                
! Port Impedance         50               0                50               0                
17.24                          0.271376151278332 60.6072052293222 0.960944578373116 -29.2152967386282 0.960944578373116 -29.2152967386282 0.271376151278332 60.6072052293222 
! Gamma         0                0                0                0                
! Port Impedance         50               0                50               0                
17.26                          0.275574685090313 60.1133272963216 0.959751334182028 -29.712262043285 0.959751334182028 -29.712262043285 0.275574685090313 60.1133272963216 
! Gamma         0                0                0                0                
! Port Impedance         50               0                50               0                
17.28                          0.279742089701338 59.62058978262   0.958547349251477 -30.2079881757519 0.958547349251476 -30.2079881757519 0.279742089701338 59.62058978262   
! Gamma         0                0                0                0                
! Port Impedance         50               0                50               0                
17.3                           0.283878131297355 59.1290070712795 0.957333057513973 -30.7024658189055 0.957333057513973 -30.7024658189055 0.283878131297356 59.1290070712795 
! Gamma         0                0                0                0                
! Port Impedance         50               0                50               0                
17.32                          0.287982587543841 58.6385927189446 0.956108892277262 -31.1956861438348 0.956108892277262 -31.1956861438348 0.287982587543841 58.6385927189446 
! Gamma         0                0                0                0                
! Port Impedance         50               0                50               0                
17.34                          0.292055247458781 58.1493594863506 0.954875285984147 -31.6876408071336 0.954875285984147 -31.6876408071336 0.292055247458781 58.1493594863507 
! Gamma         0                0                0                0                
! Port Impedance         50               0                50               0                
17.36                          0.296095911278446 57.6613193664176 0.953632669979046 -32.1783219479102 0.953632669979047 -32.1783219479102 0.296095911278446 57.6613193664177 
! Gamma         0                0                0                0                
! Port Impedance         50               0                50               0                
17.38                          0.300104390316308 57.1744836102221 0.952381474281371 -32.6677221845223 0.952381474281372 -32.6677221845223 0.300104390316308 57.1744836102221 
! Gamma         0                0                0                0                
! Port Impedance         50               0                50               0                
17.4                           0.304080506815464 56.6888627510968 0.951122127365848 -33.1558346110497 0.951122127365848 -33.1558346110497 0.304080506815465 56.6888627510968 
! Gamma         0                0                0                0                
! Port Impedance         50               0                50               0                
17.42                          0.30802409379495 56.2044666270788 0.949855055949872 -33.6426527935149 0.949855055949872 -33.6426527935149 0.30802409379495 56.2044666270788 
! Gamma         0                0                0                0                
! Port Impedance         50               0                50               0                
17.44                          0.311934994890292 55.7213044018961 0.948580684787967 -34.1281707658646 0.948580684787967 -34.1281707658646 0.311934994890292 55.721304401896  
! Gamma         0                0                0                0                
! Port Impedance         50               0                50               0                
17.46                          0.315813064188667 55.2393845846604 0.947299436473399 -34.6123830257206 0.947299436473399 -34.6123830257206 0.315813064188667 55.2393845846604 
! Gamma         0                0                0                0                
! Port Impedance         50               0                50               0                
17.48                          0.319658166059032 54.7587150484124 0.946011731247005 -35.0952845299142 0.946011731247005 -35.0952845299142 0.319658166059032 54.7587150484124 
! Gamma         0                0                0                0                
! Port Impedance         50               0                50               0                
17.5                           0.323470174977573 54.2793030476458 0.944717986813246 -35.5768706898128 0.944717986813246 -35.5768706898128 0.323470174977573 54.2793030476458 
! Gamma         0                0                0                0                
! Port Impedance         50               0                50               0                
17.52                          0.327248975348824 53.801155234924  0.943418618163521 -36.0571373664508 0.943418618163521 -36.0571373664508 0.327248975348824 53.801155234924  
! Gamma         0                0                0                0                
! Port Impedance         50               0                50               0                
17.54                          0.330994461322814 53.3242776766861 0.94211403740672 -36.5360808654767 0.94211403740672 -36.5360808654767 0.330994461322814 53.3242776766862 
! Gamma         0                0                0                0                
! Port Impedance         50               0                50               0                
17.56                          0.334706536608559 52.8486758683288 0.940804653607039 -37.0136979319256 0.940804653607038 -37.0136979319256 0.334706536608559 52.8486758683287 
! Gamma         0                0                0                0                
! Port Impedance         50               0                50               0                
17.58                          0.338385114284262 52.3743547486391 0.939490872628992 -37.4899857448289 0.939490872628992 -37.4899857448289 0.338385114284261 52.3743547486391 
! Gamma         0                0                0                0                
! Port Impedance         50               0                50               0                
17.6                           0.342030116604517 51.901318713646  0.938173096989633 -37.9649419116716 0.938173096989633 -37.9649419116716 0.342030116604517 51.901318713646  
! Gamma         0                0                0                0                
! Port Impedance         50               0                50               0                
17.62                          0.345641474804873 51.4295716299457 0.936851725717893 -38.4385644627089 0.936851725717892 -38.4385644627089 0.345641474804873 51.4295716299457 
! Gamma         0                0                0                0                
! Port Impedance         50               0                50               0                
17.64                          0.349219128904027 50.9591168475558 0.935527154221026 -38.9108518451496 0.935527154221026 -38.9108518451496 0.349219128904026 50.9591168475558 
! Gamma         0                0                0                0                
! Port Impedance         50               0                50               0                
17.66                          0.352763027503994 50.4899572123402 0.934199774158062 -39.3818029172195 0.934199774158061 -39.3818029172195 0.352763027503994 50.4899572123401 
! Gamma         0                0                0                0                
! Port Impedance         50               0                50               0                
17.68                          0.356273127588524 50.0220950780444 0.932869973320199 -39.8514169421142 0.932869973320199 -39.8514169421142 0.356273127588524 50.0220950780444 
! Gamma         0                0                0                0                
! Port Impedance         50               0                50               0                
17.7                           0.359749394320056 49.5555323179785 0.931538135518073 -40.3196935818492 0.931538135518073 -40.3196935818492 0.359749394320056 49.5555323179785 
! Gamma         0                0                0                0                
! Port Impedance         50               0                50               0                
17.72                          0.363191800835501 49.0902703363742 0.930204640475781 -40.7866328910188 0.930204640475781 -40.7866328910188 0.363191800835501 49.0902703363742 
! Gamma         0                0                0                0                
! Port Impedance         50               0                50               0                
17.74                          0.366600328041112 48.6263100794452 0.928869863731577 -41.2522353104737 0.928869863731577 -41.2522353104737 0.366600328041112 48.6263100794452 
! Gamma         0                0                0                0                
! Port Impedance         50               0                50               0                
17.76                          0.369974964406707 48.1636520461741 0.927534176545135 -41.7165016609239 0.927534176545135 -41.7165016609239 0.369974964406706 48.1636520461741 
! Gamma         0                0                0                0                
! Port Impedance         50               0                50               0                
17.78                          0.373315705759495 47.7022962988444 0.926197945811253 -42.1794331364785 0.926197945811253 -42.1794331364785 0.373315705759495 47.7022962988444 
! Gamma         0                0                0                0                
! Port Impedance         50               0                50               0                
17.8                           0.376622555077754 47.2422424733375 0.92486153397989 -42.6410312981296 0.92486153397989 -42.6410312981296 0.376622555077754 47.2422424733375 
! Gamma         0                0                0                0                
! Port Impedance         50               0                50               0                
17.82                          0.379895522284582 46.7834897892093 0.923525298982399 -43.1012980671899 0.923525298982399 -43.1012980671899 0.379895522284582 46.7834897892093 
! Gamma         0                0                0                0                
! Port Impedance         50               0                50               0                
17.84                          0.383134624041955 46.32603705956   0.922189594163847 -43.5602357186898 0.922189594163847 -43.5602357186898 0.383134624041955 46.32603705956   
! Gamma         0                0                0                0                
! Port Impedance         50               0                50               0                
17.86                          0.386339883545302 45.8698827007088 0.920854768221256 -44.0178468747461 0.920854768221256 -44.0178468747461 0.386339883545302 45.8698827007088 
! Gamma         0                0                0                0                
! Port Impedance         50               0                50               0                
17.88                          0.389511330318801 45.4150247416842 0.919521165147654 -44.4741344979054 0.919521165147653 -44.4741344979054 0.389511330318801 45.4150247416842 
! Gamma         0                0                0                0                
! Port Impedance         50               0                50               0                
17.9                           0.392649000011588 44.9614608335394 0.918189124181778 -44.9291018844728 0.918189124181778 -44.9291018844728 0.392649000011588 44.9614608335394 
! Gamma         0                0                0                0                
! Port Impedance         50               0                50               0                
17.92                          0.395752934195078 44.5091882584981 0.91685897976329 -45.3827526578325 0.91685897976329 -45.3827526578325 0.395752934195078 44.5091882584981 
! Gamma         0                0                0                0                
! Port Impedance         50               0                50               0                
17.94                          0.398823180161547 44.0582039389413 0.915531061493352 -45.8350907617654 0.915531061493352 -45.8350907617653 0.398823180161547 44.0582039389413 
! Gamma         0                0                0                0                
! Port Impedance         50               0                50               0                
17.96                          0.401859790724172 43.6085044462365 0.914205694100412 -46.286120453773 0.914205694100412 -46.286120453773 0.401859790724172 43.6085044462365 
! Gamma         0                0                0                0                
! Port Impedance         50               0                50               0                
17.98                          0.40486282401867 43.1600860094182 0.912883197411056 -46.7358462984124 0.912883197411056 -46.7358462984124 0.404862824018671 43.1600860094182 
! Gamma         0                0                0                0                
! Port Impedance         50               0                50               0                
18                             0.407832343306682 42.7129445237208 0.911563886325753 -47.1842731606484 0.911563886325753 -47.1842731606484 0.407832343306682 42.7129445237207 
! Gamma         0                0                0                0                
! Port Impedance         50               0                50               0                
18.02                          0.41076841678105 42.2670755589696 0.910248070799359 -47.6314061992293 0.910248070799359 -47.6314061992293 0.41076841678105 42.2670755589696 
! Gamma         0                0                0                0                
! Port Impedance         50               0                50               0                
18.04                          0.413671117373114 41.8224743678327 0.908936055826208 -48.0772508600919 0.908936055826209 -48.0772508600919 0.413671117373114 41.8224743678327 
! Gamma         0                0                0                0                
! Port Impedance         50               0                50               0                
18.06                          0.416540522562149 41.3791358939353 0.907628141429645 -48.5218128698004 0.907628141429645 -48.5218128698004 0.416540522562149 41.3791358939353 
! Gamma         0                0                0                0                
! Port Impedance         50               0                50               0                
18.08                          0.419376714187059 40.9370547798401 0.906324622655837 -48.9650982290245 0.906324622655836 -48.9650982290245 0.41937671418706 40.93705477984   
! Gamma         0                0                0                0                
! Port Impedance         50               0                50               0                
18.1                           0.422179778260435 40.4962253748942 0.905025789571703 -49.4071132060628 0.905025789571703 -49.4071132060628 0.422179778260435 40.4962253748942 
! Gamma         0                0                0                0                
! Port Impedance         50               0                50               0                
18.12                          0.424949804785062 40.0566417429465 0.903731927266823 -49.8478643304134 0.903731927266823 -49.8478643304134 0.424949804785062 40.0566417429465 
! Gamma         0                0                0                0                
! Port Impedance         50               0                50               0                
18.14                          0.427686887572981 39.6182976699339 0.902443315859153 -50.2873583863991 0.902443315859153 -50.2873583863991 0.427686887572981 39.6182976699339 
! Gamma         0                0                0                0                
! Port Impedance         50               0                50               0                
18.16                          0.430391124067183 39.18118667134   0.901160230504397 -50.7256024068489 0.901160230504397 -50.725602406849 0.430391124067183 39.18118667134   
! Gamma         0                0                0                0                
! Port Impedance         50               0                50               0                
18.18                          0.433062615165997 38.7453019995261 0.89988294140889 -51.162603666841 0.89988294140889 -51.162603666841 0.433062615165997 38.7453019995261 
! Gamma         0                0                0                0                
! Port Impedance         50               0                50               0                
18.2                           0.43570146505026 38.3106366509355 0.898611713845838 -51.5983696775097 0.898611713845837 -51.5983696775097 0.43570146505026 38.3106366509355 
! Gamma         0                0                0                0                
! Port Impedance         50               0                50               0                
18.22                          0.438307781013306 37.8771833731722 0.897346808174754 -52.0329081799216 0.897346808174755 -52.0329081799216 0.438307781013306 37.8771833731722 
! Gamma         0                0                0                0                
! Port Impedance         50               0                50               0                
18.24                          0.440881673293854 37.4449346719544 0.896088479863963 -52.4662271390222 0.896088479863963 -52.4662271390222 0.440881673293854 37.4449346719544 
! Gamma         0                0                0                0                
! Port Impedance         50               0                50               0                
18.26                          0.443423254911821 37.0138828179435 0.894836979516009 -52.8983347376563 0.894836979516009 -52.8983347376563 0.443423254911821 37.0138828179435 
! Gamma         0                0                0                0                
! Port Impedance         50               0                50               0                
18.28                          0.445932641507106 36.5840198534479 0.893592552895836 -53.3292393706668 0.893592552895836 -53.3292393706668 0.445932641507105 36.5840198534479 
! Gamma         0                0                0                0                
! Port Impedance         50               0                50               0                
18.3                           0.448409951181386 36.1553375990061 0.892355440961597 -53.7589496390708 0.892355440961598 -53.7589496390708 0.448409951181386 36.1553375990061 
! Gamma         0                0                0                0                
! Port Impedance         50               0                50               0                
18.32                          0.450855304342955 35.7278276598432 0.891125879897946 -54.1874743443196 0.891125879897946 -54.1874743443196 0.450855304342955 35.7278276598432 
! Gamma         0                0                0                0                
! Port Impedance         50               0                50               0                
18.34                          0.453268823554613 35.3014814322073 0.889904101151688 -54.6148224826411 0.889904101151688 -54.6148224826411 0.453268823554614 35.3014814322073 
! Gamma         0                0                0                0                
! Port Impedance         50               0                50               0                
18.36                          0.455650633384643 34.8762901095829 0.888690331469642 -55.0410032394689 0.888690331469642 -55.041003239469 0.455650633384643 34.8762901095829 
! Gamma         0                0                0                0                
! Port Impedance         50               0                50               0                
18.38                          0.45800086026088 34.4522446887833 0.887484792938602 -55.4660259839584 0.887484792938602 -55.4660259839584 0.45800086026088 34.4522446887833 
! Gamma         0                0                0                0                
! Port Impedance         50               0                50               0                
18.4                           0.460319632327878 34.029335975921  0.886287703027251 -55.889900263592 0.886287703027251 -55.889900263592 0.460319632327878 34.029335975921  
! Gamma         0                0                0                0                
! Port Impedance         50               0                50               0                
18.42                          0.462607079307197 33.6075545922575 0.88509927462991 -56.3126357988766 0.88509927462991 -56.3126357988766 0.462607079307197 33.6075545922575 
! Gamma         0                0                0                0                
! Port Impedance         50               0                50               0                
18.44                          0.464863332360775 33.1868909799351 0.883919716112009 -56.7342424781298 0.883919716112009 -56.7342424781297 0.464863332360775 33.1868909799351 
! Gamma         0                0                0                0                
! Port Impedance         50               0                50               0                
18.46                          0.467088523957421 32.7673354075862 0.882749231357145 -57.1547303523622 0.882749231357145 -57.1547303523622 0.467088523957421 32.7673354075862 
! Gamma         0                0                0                0                
! Port Impedance         50               0                50               0                
18.48                          0.469282787742393 32.3488779758265 0.881588019815631 -57.5741096302521 0.881588019815631 -57.5741096302521 0.469282787742393 32.3488779758265 
! Gamma         0                0                0                0                
! Port Impedance         50               0                50               0                
18.5                           0.471446258410059 31.9315086226285 0.8804362765544  -57.9923906732141 0.8804362765544  -57.9923906732141 0.471446258410059 31.9315086226285 
! Gamma         0                0                0                0                
! Port Impedance         50               0                50               0                
18.52                          0.473579071579627 31.5152171285788 0.879294192308179 -58.4095839905652 0.87929419230818 -58.4095839905652 0.473579071579627 31.5152171285788 
! Gamma         0                0                0                0                
! Port Impedance         50               0                50               0                
18.54                          0.475681363673917 31.0999931220178 0.878161953531809 -58.825700234784 0.878161953531809 -58.825700234784 0.475681363673917 31.0999931220178 
! Gamma         0                0                0                0                
! Port Impedance         50               0                50               0                
18.56                          0.477753271801174 30.685826084064  0.877039742453614 -59.2407501968691 0.877039742453614 -59.2407501968691 0.477753271801174 30.685826084064  
! Gamma         0                0                0                0                
! Port Impedance         50               0                50               0                
18.58                          0.479794933639864 30.272705353524  0.87592773712973 -59.654744801791 0.87592773712973 -59.654744801791 0.479794933639864 30.272705353524  
! Gamma         0                0                0                0                
! Port Impedance         50               0                50               0                
18.6                           0.481806487326465 29.8606201316874 0.874826111499271 -60.0676951040433 0.874826111499271 -60.0676951040433 0.481806487326465 29.8606201316875 
! Gamma         0                0                0                0                
! Port Impedance         50               0                50               0                
18.62                          0.483788071346187 29.4495594870096 0.87373503544027 -60.4796122832883 0.87373503544027 -60.4796122832883 0.483788071346188 29.4495594870096 
! Gamma         0                0                0                0                
! Port Impedance         50               0                50               0                
18.64                          0.485739824426616 29.0395123596822 0.872654674826284 -60.8905076401004 0.872654674826284 -60.8905076401004 0.485739824426616 29.0395123596822 
! Gamma         0                0                0                0                
! Port Impedance         50               0                50               0                
18.66                          0.487661885434237 28.6304675660916 0.871585191583577 -61.3003925918061 0.871585191583577 -61.3003925918061 0.487661885434237 28.6304675660917 
! Gamma         0                0                0                0                
! Port Impedance         50               0                50               0                
18.68                          0.489554393273798 28.2224138031699 0.870526743748813 -61.7092786684189 0.870526743748813 -61.7092786684189 0.489554393273798 28.2224138031698 
! Gamma         0                0                0                0                
! Port Impedance         50               0                50               0                
18.7                           0.491417486790481 27.8153396526339 0.869479485527157 -62.1171775086708 0.869479485527157 -62.1171775086708 0.49141748679048 27.8153396526339 
! Gamma         0                0                0                0                
! Port Impedance         50               0                50               0                
18.72                          0.493251304674844 27.4092335851193 0.868443567350715 -62.5241008561394 0.868443567350715 -62.5241008561394 0.493251304674844 27.4092335851193 
! Gamma         0                0                0                0                
! Port Impedance         50               0                50               0                
18.74                          0.495055985370485 27.004083964207  0.867419135937251 -62.9300605554684 0.867419135937251 -62.9300605554684 0.495055985370485 27.004083964207  
! Gamma         0                0                0                0                
! Port Impedance         50               0                50               0                
18.76                          0.496831666984394 26.5998790503441 0.866406334349081 -63.3350685486835 0.866406334349081 -63.3350685486835 0.496831666984394 26.5998790503441 
! Gamma         0                0                0                0                
! Port Impedance         50               0                50               0                
18.78                          0.498578487199939 26.1966070046622 0.8654053020521  -63.7391368716011 0.8654053020521  -63.7391368716011 0.498578487199939 26.1966070046622 
! Gamma         0                0                0                0                
! Port Impedance         50               0                50               0                
18.8                           0.50029658319246 25.7942558926916 0.864416174974864 -64.1422776503297 0.864416174974864 -64.1422776503297 0.50029658319246 25.7942558926915 
! Gamma         0                0                0                0                
! Port Impedance         50               0                50               0                
18.82                          0.501986091547401 25.3928136879759 0.863439085567661 -64.5445030978629 0.863439085567662 -64.5445030978629 0.501986091547401 25.3928136879759 
! Gamma         0                0                0                0                
! Port Impedance         50               0                50               0                
18.84                          0.503647148180962 24.9922682755853 0.862474162861522 -64.9458255107642 0.862474162861522 -64.9458255107642 0.503647148180962 24.9922682755853 
! Gamma         0                0                0                0                
! Port Impedance         50               0                50               0                
18.86                          0.50527988826319 24.5926074555322 0.861521532527095 -65.3462572659402 0.861521532527095 -65.3462572659402 0.50527988826319 24.5926074555322 
! Gamma         0                0                0                0                
! Port Impedance         50               0                50               0                
18.88                          0.506884446143504 24.1938189460901 0.860581316933349 -65.7458108175049 0.860581316933349 -65.7458108175049 0.506884446143503 24.1938189460901 
! Gamma         0                0                0                0                
! Port Impedance         50               0                50               0                
18.9                           0.508460955278559 23.7958903870161 0.859653635206032 -66.1444986937297 0.859653635206032 -66.1444986937297 0.50846095527856 23.795890387016  
! Gamma         0                0                0                0                
! Port Impedance         50               0                50               0                
18.92                          0.510009548162447 23.39880934268   0.858738603285848 -66.5423334940818 0.858738603285848 -66.5423334940818 0.510009548162447 23.39880934268   
! Gamma         0                0                0                0                
! Port Impedance         50               0                50               0                
18.94                          0.511530356259144 23.0025633051008 0.857836333986303 -66.9393278863477 0.857836333986303 -66.9393278863477 0.511530356259144 23.0025633051007 
! Gamma         0                0                0                0                
! Port Impedance         50               0                50               0                
18.96                          0.513023509937189 22.6071396968918 0.856946937051159 -67.3354946038412 0.856946937051159 -67.3354946038412 0.513023509937189 22.6071396968918 
! Gamma         0                0                0                0                
! Port Impedance         50               0                50               0                
18.98                          0.514489138406529 22.2125258741164 0.856070519211474 -67.7308464426951 0.856070519211474 -67.7308464426951 0.514489138406529 22.2125258741164 
! Gamma         0                0                0                0                
! Port Impedance         50               0                50               0                
19                             0.51592736965747 21.8187091290565 0.855207184242172 -68.1253962592344 0.855207184242173 -68.1253962592344 0.51592736965747 21.8187091290565 
! Gamma         0                0                0                0                
! Port Impedance         50               0                50               0                
19.02                          0.517338330401719 21.4256766928933 0.854357033018107 -68.5191569674306 0.854357033018107 -68.5191569674306 0.51733833040172 21.4256766928933 
! Gamma         0                0                0                0                
! Port Impedance         50               0                50               0                
19.04                          0.518722146015438 21.0334157383042 0.853520163569579 -68.9121415364357 0.853520163569578 -68.9121415364357 0.518722146015437 21.0334157383041 
! Gamma         0                0                0                0                
! Port Impedance         50               0                50               0                
19.06                          0.520078940484262 20.6419133819769 0.852696671137279 -69.3043629881937 0.852696671137279 -69.3043629881937 0.520078940484262 20.6419133819769 
! Gamma         0                0                0                0                
! Port Impedance         50               0                50               0                
19.08                          0.521408836350265 20.2511566870403 0.851886648226618 -69.69583439513  0.851886648226618 -69.69583439513  0.521408836350265 20.2511566870403 
! Gamma         0                0                0                0                
! Port Impedance         50               0                50               0                
19.1                           0.522711954660782 19.8611326654172 0.851090184661405 -70.0865688779149 0.851090184661406 -70.0865688779149 0.522711954660782 19.8611326654172 
! Gamma         0                0                0                0                
! Port Impedance         50               0                50               0                
19.12                          0.523988414919068 19.4718282800976 0.850307367636864 -70.4765796033019 0.850307367636864 -70.4765796033019 0.523988414919068 19.4718282800976 
! Gamma         0                0                0                0                
! Port Impedance         50               0                50               0                
19.14                          0.525238335036747 19.0832304473347 0.849538281771929 -70.8658797820395 0.849538281771929 -70.8658797820395 0.525238335036747 19.0832304473347 
! Gamma         0                0                0                0                
! Port Impedance         50               0                50               0                
19.16                          0.526461831287982 18.6953260387677 0.848783009160833 -71.2544826668518 0.848783009160833 -71.2544826668518 0.526461831287982 18.6953260387677 
! Gamma         0                0                0                0                
! Port Impedance         50               0                50               0                
19.18                          0.527659018265351 18.3081018834682 0.848041629423919 -71.6424015504919 0.848041629423919 -71.6424015504919 0.527659018265351 18.3081018834682 
! Gamma         0                0                0                0                
! Port Impedance         50               0                50               0                
19.2                           0.528830008837351 17.9215447699178 0.847314219757691 -72.029649763861 0.847314219757691 -72.029649763861 0.528830008837351 17.9215447699178 
! Gamma         0                0                0                0                
! Port Impedance         50               0                50               0                
19.22                          0.529974914107516 17.5356414479125 0.846600854984049 -72.4162406741967 0.84660085498405 -72.4162406741967 0.529974914107516 17.5356414479125 
! Gamma         0                0                0                0                
! Port Impedance         50               0                50               0                
19.24                          0.531093843375077 17.1503786304005 0.845901607598721 -72.8021876833244 0.845901607598722 -72.8021876833244 0.531093843375077 17.1503786304005 
! Gamma         0                0                0                0                
! Port Impedance         50               0                50               0                
19.26                          0.532186904097143 16.7657429952517 0.845216547818835 -73.1875042259753 0.845216547818835 -73.1875042259753 0.532186904097143 16.7657429952517 
! Gamma         0                0                0                0                
! Port Impedance         50               0                50               0                
19.28                          0.533254201852344 16.3817211869623 0.844545743629646 -73.5722037681649 0.844545743629646 -73.5722037681649 0.533254201852345 16.3817211869623 
! Gamma         0                0                0                0                
! Port Impedance         50               0                50               0                
19.3                           0.534295840305904 15.9982998182953 0.843889260830386 -73.9562998056332 0.843889260830385 -73.9562998056332 0.534295840305904 15.9982998182953 
! Gamma         0                0                0                0                
! Port Impedance         50               0                50               0                
19.32                          0.535311921176094 15.6154654718586 0.843247163079215 -74.3398058623453 0.843247163079215 -74.3398058623453 0.535311921176093 15.6154654718586 
! Gamma         0                0                0                0                
! Port Impedance         50               0                50               0                
19.34                          0.536302544202029 15.2332047016232 0.842619511937279 -74.7227354890484 0.842619511937279 -74.7227354890483 0.536302544202029 15.2332047016232 
! Gamma         0                0                0                0                
! Port Impedance         50               0                50               0                
19.36                          0.537267807112782 14.8515040343804 0.842006366911835 -75.105102261888 0.842006366911835 -75.105102261888 0.537267807112782 14.8515040343804 
! Gamma         0                0                0                0                
! Port Impedance         50               0                50               0                
19.38                          0.538207805597736 14.4703499711441 0.841407785498457 -75.4869197810765 0.841407785498456 -75.4869197810765 0.538207805597736 14.4703499711441 
! Gamma         0                0                0                0                
! Port Impedance         50               0                50               0                
19.4                           0.539122633278192 14.0897289884951 0.840823823222287 -75.868201669618 0.840823823222287 -75.868201669618 0.539122633278192 14.0897289884951 
! Gamma         0                0                0                0                
! Port Impedance         50               0                50               0                
19.42                          0.54001238168015 13.7096275398715 0.840254533678346 -76.2489615720838 0.840254533678346 -76.2489615720838 0.54001238168015 13.7096275398715 
! Gamma         0                0                0                0                
! Port Impedance         50               0                50               0                
19.44                          0.540877140208237 13.3300320568072 0.839699968570868 -76.6292131534392 0.839699968570868 -76.6292131534391 0.540877140208237 13.3300320568072 
! Gamma         0                0                0                0                
! Port Impedance         50               0                50               0                
19.46                          0.541716996120774 12.9509289501173 0.839160177751668 -77.0089700979204 0.839160177751668 -77.0089700979204 0.541716996120774 12.9509289501174 
! Gamma         0                0                0                0                
! Port Impedance         50               0                50               0                
19.48                          0.542532034505904 12.5723046110362 0.838635209257531 -77.3882461079582 0.838635209257531 -77.3882461079582 0.542532034505904 12.5723046110362 
! Gamma         0                0                0                0                
! Port Impedance         50               0                50               0                
19.5                           0.543322338258783 12.1941454123044 0.838125109346607 -77.7670549031492 0.838125109346607 -77.7670549031492 0.543322338258783 12.1941454123044 
! Gamma         0                0                0                0                
! Port Impedance         50               0                50               0                
19.52                          0.544087988059776 11.8164377092114 0.837629922533815 -78.1454102192714 0.837629922533816 -78.1454102192714 0.544087988059776 11.8164377092114 
! Gamma         0                0                0                0                
! Port Impedance         50               0                50               0                
19.54                          0.544829062353649 11.4391678405921 0.837149691625246 -78.5233258073441 0.837149691625246 -78.5233258073441 0.544829062353649 11.4391678405921 
! Gamma         0                0                0                0                
! Port Impedance         50               0                50               0                
19.56                          0.545545637329702 11.0623221297789 0.836684457751557 -78.9008154327293 0.836684457751557 -78.9008154327293 0.545545637329702 11.0623221297789 
! Gamma         0                0                0                0                
! Port Impedance         50               0                50               0                
19.58                          0.546237786902834 10.6858868855128 0.836234260400352 -79.2778928742752 0.836234260400352 -79.2778928742752 0.546237786902835 10.6858868855128 
! Gamma         0                0                0                0                
! Port Impedance         50               0                50               0                
19.6                           0.546905582695502 10.3098484028128 0.835799137447549 -79.6545719234974 0.835799137447548 -79.6545719234974 0.546905582695502 10.3098484028128 
! Gamma         0                0                0                0                
! Port Impedance         50               0                50               0                
19.62                          0.547549094020533 9.93419296380693 0.835379125187729 -80.0308663837996 0.835379125187729 -80.0308663837996 0.547549094020533 9.93419296380693 
! Gamma         0                0                0                0                
! Port Impedance         50               0                50               0                
19.64                          0.548168387864794 9.5589068385237  0.834974258363457 -80.4067900697308 0.834974258363457 -80.4067900697308 0.548168387864794 9.55890683852371 
! Gamma         0                0                0                0                
! Port Impedance         50               0                50               0                
19.66                          0.54876352887366 9.1839762856494  0.834584570193571 -80.7823568062767 0.834584570193572 -80.7823568062767 0.54876352887366 9.1839762856494  
! Gamma         0                0                0                0                
! Port Impedance         50               0                50               0                
19.68                          0.549334579336271 8.8093875532482  0.834210092400457 -81.1575804281867 0.834210092400457 -81.1575804281867 0.549334579336271 8.8093875532482  
! Gamma         0                0                0                0                
! Port Impedance         50               0                50               0                
19.7                           0.549881599171559 8.43512687945017 0.83385085523627 -81.5324747793323 0.83385085523627 -81.5324747793323 0.54988159917156 8.43512687945016 
! Gamma         0                0                0                0                
! Port Impedance         50               0                50               0                
19.72                          0.550404645915007 8.0611804931068  0.833506887508141 -81.9070537120968 0.833506887508142 -81.9070537120968 0.550404645915008 8.0611804931068  
! Gamma         0                0                0                0                
! Port Impedance         50               0                50               0                
19.74                          0.550903774706125 7.68753461441491 0.833178216602335 -82.2813310867956 0.833178216602335 -82.2813310867956 0.550903774706125 7.68753461441491 
! Gamma         0                0                0                0                
! Port Impedance         50               0                50               0                
19.76                          0.551379038276622 7.31417545551251 0.832864868507376 -82.6553207711242 0.832864868507376 -82.6553207711242 0.551379038276622 7.31417545551251 
! Gamma         0                0                0                0                
! Port Impedance         50               0                50               0                
19.78                          0.55183048693926 6.94108922104521 0.832566867836127 -83.0290366396344 0.832566867836127 -83.0290366396344 0.55183048693926 6.94108922104521 
! Gamma         0                0                0                0                
! Port Impedance         50               0                50               0                
19.8                           0.552258168577349 6.56826210870737 0.832284237846842 -83.4024925732352 0.832284237846842 -83.4024925732352 0.552258168577349 6.56826210870738 
! Gamma         0                0                0                0                
! Port Impedance         50               0                50               0                
19.82                          0.552662128634891 6.19568030975657 0.832017000463163 -83.7757024587197 0.832017000463163 -83.7757024587197 0.552662128634891 6.19568030975658 
! Gamma         0                0                0                0                
! Port Impedance         50               0                50               0                
19.84                          0.553042410107334 5.82333000950545 0.831765176293087 -84.148680188314 0.831765176293087 -84.148680188314 0.553042410107334 5.82333000950545 
! Gamma         0                0                0                0                
! Port Impedance         50               0                50               0                
19.86                          0.553399053532932 5.45119738779005 0.831528784646881 -84.521439659249 0.831528784646881 -84.521439659249 0.553399053532932 5.45119738779005 
! Gamma         0                0                0                0                
! Port Impedance         50               0                50               0                
19.88                          0.553732096984693 5.07926861941693 0.831307843553962 -84.8939947733527 0.831307843553962 -84.8939947733527 0.553732096984693 5.07926861941693 
! Gamma         0                0                0                0                
! Port Impedance         50               0                50               0                
19.9                           0.55404157606289 4.70752987459085 0.831102369778728 -85.2663594366616 0.831102369778728 -85.2663594366616 0.55404157606289 4.70752987459085 
! Gamma         0                0                0                0                
! Port Impedance         50               0                50               0                
19.92                          0.55432752388814 4.33596731932342 0.830912378835352 -85.6385475590508 0.830912378835352 -85.6385475590508 0.554327523888139 4.33596731932343 
! Gamma         0                0                0                0                
! Port Impedance         50               0                50               0                
19.94                          0.554589971095014 3.96456711582448 0.830737885001527 -86.0105730538808 0.830737885001527 -86.0105730538808 0.554589971095014 3.96456711582448 
! Gamma         0                0                0                0                
! Port Impedance         50               0                50               0                
19.96                          0.554828945826196 3.59331542287749 0.830578901331171 -86.3824498376596 0.830578901331172 -86.3824498376596 0.554828945826196 3.59331542287749 
! Gamma         0                0                0                0                
! Port Impedance         50               0                50               0                
19.98                          0.555044473727143 3.22219839619996 0.830435439666088 -86.7541918297201 0.830435439666088 -86.7541918297201 0.555044473727143 3.22219839619996 
! Gamma         0                0                0                0                
! Port Impedance         50               0                50               0                
20                             0.55523657794127 2.85120218879131 0.830307510646587 -87.1258129519091 0.830307510646587 -87.1258129519091 0.55523657794127 2.85120218879131 
! Gamma         0                0                0                0                
! Port Impedance         50               0                50               0                
! Noise Data
